# LAMMPS data file written by Ovito 3.10.6

178 atoms
7 atom types

0.0 13.1685338237 xlo xhi
0.0 13.1685338237 ylo yhi
0.0 35.3813095936 zlo zhi

Masses

1 6.941  # Li
2 9.012182  # Be
3 18.9984032  # F
4 95.94  # Mo
5 92.90638  # Nb
6 180.9479  # Ta
7 183.84  # W

Atoms  # atomic

1 1 10.6855780198 16.2273396675 10.9664230924
2 1 0.8699679671 12.7173369028 12.9840447989
3 1 7.2367074405 12.1885234423 10.7022332501
4 1 3.8959502157 4.9787142095 14.2387690337
5 1 12.6745751892 7.7445101405 10.2264339787
6 1 8.2991480745 9.9362715604 11.3708279869
7 1 4.9986806603 10.9235886184 10.0565727221
8 1 4.8394682395 1.2881965836 10.8148688301
9 1 0.7391779011 2.4153861999 11.56598954
10 1 3.3841554635 5.3932070256 9.6941230536
11 1 6.858228701 5.3665378322 13.1661556051
12 1 2.6578998804 8.037896451 10.1600518732
13 1 4.345296936 12.5009187517 13.0853813525
14 1 13.3565256973 9.9943274815 8.6026233855
15 1 10.83532572 9.504893006 10.0176183031
16 1 8.7060059607 13.1618454935 12.0303727898
17 1 14.1425537717 6.1503825524 12.4848490461
18 1 11.0691022897 4.6672612971 8.9037613184
19 1 1.3585110229 12.9856142607 10.0154220884
20 1 4.8876151142 8.1922938733 8.7283581
21 1 2.9176552969 2.7507529407 9.6838962288
22 1 12.298725619 3.7698888532 12.6099951486
23 1 8.1777351036 2.2078734487 9.6176334007
24 1 8.9254152653 4.6017690187 11.071976688
25 1 -1.9641653522 10.8521048885 12.2065033542
26 1 5.3315020657 4.106369301 10.7353006733
27 1 9.533062538 7.0441714022 8.501465448
28 1 9.3528084344 7.9470644271 12.3809983566
29 2 2.7316337329 11.2087263467 11.8524061258
30 2 11.4710896164 1.3108595782 8.5931436065
31 2 8.57759146 11.2905682363 8.1116880705
32 2 3.3164621278 1.0983504757 7.6514966567
33 2 10.9230892746 5.9348238843 12.4081298502
34 2 6.2060206593 8.3021529269 11.1237905057
35 2 0.6025443802 9.3925927592 11.8828651101
36 2 3.2261541402 2.5472964594 12.7636693361
37 2 4.3843020745 6.4804509719 12.3961264658
38 2 0.5161578227 5.0359637163 10.1111662543
39 2 4.9881259977 3.5086838973 7.8531833155
40 2 11.9393996736 13.5422869672 12.1974008382
41 2 7.3429913992 2.21869619 12.2733146318
42 2 7.3485391442 6.0215567678 9.984427498
43 3 6.9623130738 5.4537226329 11.4239746489
44 3 3.641618838 6.8756262064 8.8996620459
45 3 8.5939653526 8.722645885 9.280101739
46 3 5.170022272 6.0033173331 13.7277820534
47 3 12.0078474045 15.1817423974 11.8813610573
48 3 9.2142001636 3.5167354504 9.2817814355
49 3 10.1849105635 9.5584145434 11.6423328858
50 3 4.3524215284 10.9709304802 12.1747755945
51 3 4.355232276 5.4485226438 11.2287525686
52 3 0.4310193123 7.9343474423 12.5287642024
53 3 -0.8033589681 13.4133611521 13.6395899474
54 3 1.2217577178 8.2773275311 8.0466206685
55 3 7.3256728993 14.0478304554 12.8541925964
56 3 3.4969921291 9.5922098836 9.6422137059
57 3 6.7452366986 5.1552813385 8.8403624941
58 3 0.4036448436 4.633881553 11.6567111572
59 3 1.7374318262 1.5523159511 12.5998951093
60 3 2.7859065448 12.451819161 10.9478471575
61 3 1.7469138616 4.3248925437 9.714424116
62 3 4.9140214415 7.7907834056 11.9473889019
63 3 6.7285541152 2.2954411134 10.8100489855
64 3 13.0866788745 10.5162172049 12.7096339096
65 3 11.1084415937 4.6963918139 11.2450044835
66 3 -0.0533852873 12.7120974321 11.2954202517
67 3 12.1718993808 3.103856725 8.845448326
68 3 3.7828638845 1.078076277 9.2098207994
69 3 4.5634522206 3.9978536742 9.0652333366
70 3 0.1847178535 9.3820902802 10.4819715573
71 3 3.2288049309 3.5090963702 13.9210492782
72 3 11.926202876 5.3394105106 13.6026371119
73 3 6.6913222132 3.3390353838 13.0168718301
74 3 6.0605201272 9.6031006901 10.4305690546
75 3 1.178681728 6.6380356799 10.2913681273
76 3 6.0718145183 2.4745035051 8.3685004278
77 3 11.1803131137 8.0451882486 9.0002196315
78 3 8.0400195903 0.6209365449 8.9745306132
79 3 14.1033303863 1.8181924916 9.731920073
80 3 11.3213456019 7.1321908487 11.4660778866
81 3 5.6350119148 12.695683463 10.0521701312
82 3 6.4728107222 7.3013885075 9.877351909
83 3 2.917677087 6.4435253189 13.0090401109
84 3 10.6482172965 12.7309799611 11.9262453015
85 3 7.6250533582 8.1961743123 11.9595194395
86 3 4.261454108 1.3365318458 13.0594659455
87 3 2.3535898093 11.914218255 13.2181247866
88 3 11.7463777817 11.0340317806 9.4960044234
89 3 10.6825288778 14.7032751226 9.6189500085
90 3 9.381181452 6.16422374 12.7118470763
91 3 2.0087863784 9.9277572625 11.609451257
92 3 12.4431764774 5.8087737001 9.3553291214
93 3 3.5338176902 2.8935640203 11.2784495245
94 3 8.7778568621 6.2335016325 9.9476389867
95 3 8.9591078206 2.534524712 11.892105537
96 3 1.5143136926 11.3577139202 8.9044795484
97 3 7.8872945804 11.3612697402 12.0831948658
98 3 8.582389028 11.2252559131 9.6294083799
99 4 1.0856210257 12.1662849396 6.8340693172
100 4 4.5377120173 12.0027619764 0.9558547375
101 4 2.3280919585 4.4337319574 0.8449447341
102 4 5.9053819816 6.9928319987 0.7921317255
103 4 9.6538219902 6.8273920211 0.407878709
104 4 7.6410320065 2.0353220035 0.886146729
105 4 0.8904099566 5.3705119561 2.8027987254
106 4 1.4517920069 11.836761941 1.8602187368
107 4 6.438511917 10.1021519669 1.6746787247
108 4 3.1681819976 0.27355846 3.2269487326
109 4 6.3451119839 3.2531819864 3.0215087152
110 4 6.619225168 6.280396398 3.6511300807
111 4 2.2838270015 11.1962447615 4.9796403634
112 4 5.2552438329 4.561487244 5.1254517568
113 4 0.3561960865 12.7777521945 4.0107461577
114 4 5.217819796 11.3702663648 3.8585469797
115 4 11.800961965 11.3004619445 2.6974187145
116 4 10.2605017694 12.5593982926 4.8365486498
117 4 3.0332122918 3.3247004976 6.4817735495
118 4 10.9494967007 8.5930483166 6.6880768795
119 5 6.2217721504 0.1785675056 7.7748690341
120 5 2.0551819961 7.6006718989 1.4879987268
121 5 9.7915219246 9.925911948 0.9935657295
122 5 4.2939319052 5.4222519156 2.1838987389
123 5 7.7364019523 5.0558019069 1.5521087399
124 5 11.4800619148 4.9240419031 1.3157387355
125 5 12.001961988 7.9675419838 1.8590587252
126 5 3.2045235916 3.5433593332 3.7314733303
127 5 9.5479719985 3.2873419532 2.6493887282
128 5 3.3595219792 10.1780219478 2.4940787193
129 5 8.4299719047 11.2472619896 3.2267887383
130 5 2.0203964214 1.0107443395 5.5633676806
131 5 5.1947287875 1.3576821921 4.8618203008
132 5 11.7834824176 4.3817899166 4.2286879683
133 5 5.5635093155 7.209431258 5.9953626369
134 5 6.9679636918 2.4410469428 6.2630394288
135 5 12.4033351089 6.8628170071 7.38761645
136 5 3.1844670929 6.0591350925 6.6631741352
137 5 10.4626704044 5.6454998439 6.1476229206
138 5 3.0483324111 10.3289970597 7.5468661197
139 6 9.1676548654 0.6818142442 6.9529866685
140 6 0.7055943488 2.4008333721 7.5424599409
141 6 12.8976619553 10.2505620016 0.3577567321
142 6 4.2415319388 8.9188219868 0.1167748978
143 6 2.69061195 0.5418089605 0.1606931265
144 6 10.8595619179 1.9250720096 0.196612225
145 6 8.0565120221 8.1675419883 2.53526872
146 6 11.1517643686 11.6105806709 7.6123362913
147 6 6.3623619731 0.1833731372 2.4721387339
148 6 9.5427820159 13.0921057604 1.9455287352
149 6 1.1558099568 2.0363919469 2.4320187347
150 6 12.5993299117 7.3537577426 4.478291352
151 6 11.3515619132 1.2921719681 3.3345387309
152 6 0.884737148 5.1377023596 5.881280756
153 6 1.3460878933 8.6051572544 6.03731829
154 6 10.4698723885 9.323856138 3.9549328082
155 6 7.1886520495 12.4679344355 5.3451420765
156 6 7.3476560412 5.4886302226 6.7461679804
157 6 12.5189698476 10.4763096874 5.612136096
158 6 7.7893362226 8.591825627 7.392427192
159 7 5.712511948 3.86765198 0.1793892262
160 7 9.1149386682 3.7231753513 7.2452557838
161 7 0.6080020369 9.5836625602 3.1500971168
162 7 5.9187512415 10.4662750957 6.9482251445
163 7 4.3788319448 2.1777619516 1.5720087098
164 7 4.0686378773 9.2105076719 5.2873568076
165 7 5.1130920083 8.2161020103 3.1447787192
166 7 7.6649419817 11.7611619151 0.2447377266
167 7 12.6698619907 0.1526633657 1.1184887129
168 7 2.5993315763 6.9374603504 4.1110976624
169 7 10.1355619858 6.3067819375 3.3430287238
170 7 7.0433092643 9.4295362564 4.6374754303
171 7 8.2725623215 1.4496315697 4.0496678011
172 7 8.5390953338 4.481379293 4.5945933119
173 7 8.8054938754 7.5540951368 5.2135255664
174 7 9.0898464338 10.5786504215 6.1395918005
175 7 12.1403557906 0.6306050487 6.3552661503
176 7 4.1256879162 12.3184875354 6.3588360789
177 7 13.4720552378 2.6121365661 4.9629380668
178 7 10.2982598156 2.5006556997 5.4368130679
