ITEM: TIMESTEP
0
ITEM: NUMBER OF ATOMS
178
ITEM: BOX BOUNDS pp pp pp
0.0000000000000000e+00 1.3168533823700001e+01
0.0000000000000000e+00 1.3168533823700001e+01
0.0000000000000000e+00 3.5381309593600001e+01
ITEM: ATOMS id type x y z
108 4 3.16818 0.273558 3.22695
143 6 2.69061 0.541809 0.160693
149 6 1.15581 2.03639 2.43202
163 7 4.37883 2.17776 1.57201
104 4 7.64103 2.03532 0.886147
109 4 6.34511 3.25318 3.02151
147 6 6.36236 0.183373 2.47214
159 7 5.71251 3.86765 0.179389
127 5 9.54797 3.28734 2.64939
144 6 10.8596 1.92507 0.196612
151 6 11.3516 1.29217 3.33454
167 7 12.6699 0.152663 1.11849
101 4 2.32809 4.43373 0.844945
105 4 0.89041 5.37051 2.8028
120 5 2.05518 7.60067 1.488
122 5 4.29393 5.42225 2.1839
102 4 5.90538 6.99283 0.792132
123 5 7.7364 5.0558 1.55211
145 6 8.05651 8.16754 2.53527
165 7 5.11309 8.2161 3.14478
103 4 9.65382 6.82739 0.407879
124 5 11.4801 4.92404 1.31574
125 5 12.002 7.96754 1.85906
169 7 10.1356 6.30678 3.34303
106 4 1.45179 11.8368 1.86022
128 5 3.35952 10.178 2.49408
142 6 4.24153 8.91882 0.116775
161 7 0.608002 9.58366 3.1501
100 4 4.53771 12.0028 0.955855
107 4 6.43851 10.1022 1.67468
129 5 8.42997 11.2473 3.22679
166 7 7.66494 11.7612 0.244738
115 4 11.801 11.3005 2.69742
121 5 9.79152 9.92591 0.993566
141 6 12.8977 10.2506 0.357757
148 6 9.54278 13.0921 1.94553
117 4 3.03321 3.3247 6.48177
126 5 3.20452 3.54336 3.73147
130 5 2.0204 1.01074 5.56337
177 7 0.303521 2.61214 4.96294
131 5 5.19473 1.35768 4.86182
134 5 6.96796 2.44105 6.26304
171 7 8.27256 1.44963 4.04967
132 5 11.7835 4.38179 4.22869
139 6 9.16765 0.681814 6.95299
175 7 12.1404 0.630605 6.35527
178 7 10.2983 2.50066 5.43681
136 5 3.18447 6.05914 6.66317
152 6 0.884737 5.1377 5.88128
153 6 1.34609 8.60516 6.03732
168 7 2.59933 6.93746 4.1111
110 4 6.61923 6.2804 3.65113
112 4 5.25524 4.56149 5.12545
133 5 5.56351 7.20943 5.99536
156 6 7.34766 5.48863 6.74617
172 7 8.5391 4.48138 4.59459
118 4 10.9495 8.59305 6.68808
137 5 10.4627 5.6455 6.14762
150 6 12.5993 7.35376 4.47829
173 7 8.80549 7.5541 5.21353
99 4 1.08562 12.1663 6.83407
111 4 2.28383 11.1962 4.97964
113 4 0.356196 12.7778 4.01075
164 7 4.06864 9.21051 5.28736
176 7 4.12569 12.3185 6.35884
114 4 5.21782 11.3703 3.85855
155 6 7.18865 12.4679 5.34514
162 7 5.91875 10.4663 6.94823
170 7 7.04331 9.42954 4.63748
116 4 10.2605 12.5594 4.83655
154 6 10.4699 9.32386 3.95493
157 6 12.519 10.4763 5.61214
174 7 9.08985 10.5787 6.13959
21 1 2.91766 2.75075 9.6839
32 2 3.31646 1.09835 7.6515
61 3 1.74691 4.32489 9.71442
68 3 3.78286 1.07808 9.20982
79 3 0.934797 1.81819 9.73192
140 6 0.705594 2.40083 7.54246
23 1 8.17774 2.20787 9.61763
39 2 4.98813 3.50868 7.85318
69 3 4.56345 3.99785 9.06523
76 3 6.07181 2.4745 8.3685
78 3 8.04002 0.620937 8.97453
119 5 6.22177 0.178568 7.77487
30 2 11.4711 1.31086 8.59314
48 3 9.2142 3.51674 9.28178
67 3 12.1719 3.10386 8.84545
89 3 10.6825 1.53474 9.61895
160 7 9.11494 3.72318 7.24526
10 1 3.38416 5.39321 9.69412
12 1 2.6579 8.0379 10.1601
38 2 0.516158 5.03596 10.1112
44 3 3.64162 6.87563 8.89966
54 3 1.22176 8.27733 8.04662
75 3 1.17868 6.63804 10.2914
20 1 4.88762 8.19229 8.72836
42 2 7.34854 6.02156 9.98443
45 3 8.59397 8.72265 9.2801
57 3 6.74524 5.15528 8.84036
82 3 6.47281 7.30139 9.87735
94 3 8.77786 6.2335 9.94764
158 6 7.78934 8.59183 7.39243
5 1 12.6746 7.74451 10.2264
18 1 11.0691 4.66726 8.90376
27 1 9.53306 7.04417 8.50147
77 3 11.1803 8.04519 9.00022
92 3 12.4432 5.80877 9.35533
135 5 12.4033 6.86282 7.38762
14 1 0.187992 9.99433 8.60262
19 1 1.35851 12.9856 10.0154
56 3 3.49699 9.59221 9.64221
70 3 0.184718 9.38209 10.482
96 3 1.51431 11.3577 8.90448
138 5 3.04833 10.329 7.54687
7 1 4.99868 10.9236 10.0566
31 2 8.57759 11.2906 8.11169
74 3 6.06052 9.6031 10.4306
81 3 5.63501 12.6957 10.0522
98 3 8.58239 11.2253 9.62941
15 1 10.8353 9.50489 10.0176
88 3 11.7464 11.034 9.496
146 6 11.1518 11.6106 7.61234
9 1 0.739178 2.41539 11.566
36 2 3.22615 2.5473 12.7637
59 3 1.73743 1.55232 12.5999
71 3 3.2288 3.5091 13.921
86 3 4.26145 1.33653 13.0595
93 3 3.53382 2.89356 11.2784
8 1 4.83947 1.2882 10.8149
26 1 5.3315 4.10637 10.7353
41 2 7.34299 2.2187 12.2733
55 3 7.32567 0.879297 12.8542
63 3 6.72855 2.29544 10.81
73 3 6.69132 3.33904 13.0169
1 1 10.6856 3.05881 10.9664
22 1 12.2987 3.76989 12.61
40 2 11.9394 0.373753 12.1974
47 3 12.0078 2.01321 11.8814
53 3 12.3652 0.244827 13.6396
95 3 8.95911 2.53452 11.8921
17 1 0.97402 6.15038 12.4848
37 2 4.3843 6.48045 12.3961
51 3 4.35523 5.44852 11.2288
52 3 0.431019 7.93435 12.5288
58 3 0.403645 4.63388 11.6567
83 3 2.91768 6.44353 13.009
11 1 6.85823 5.36654 13.1662
34 2 6.20602 8.30215 11.1238
43 3 6.96231 5.45372 11.424
46 3 5.17002 6.00332 13.7278
62 3 4.91402 7.79078 11.9474
85 3 7.62505 8.19617 11.9595
24 1 8.92542 4.60177 11.072
28 1 9.35281 7.94706 12.381
33 2 10.9231 5.93482 12.4081
65 3 11.1084 4.69639 11.245
72 3 11.9262 5.33941 13.6026
80 3 11.3213 7.13219 11.4661
90 3 9.38118 6.16422 12.7118
2 1 0.869968 12.7173 12.984
13 1 4.3453 12.5009 13.0854
29 2 2.73163 11.2087 11.8524
35 2 0.602544 9.39259 11.8829
50 3 4.35242 10.9709 12.1748
60 3 2.78591 12.4518 10.9478
87 3 2.35359 11.9142 13.2181
91 3 2.00879 9.92776 11.6095
3 1 7.23671 12.1885 10.7022
6 1 8.29915 9.93627 11.3708
16 1 8.70601 13.1618 12.0304
97 3 7.88729 11.3613 12.0832
25 1 11.2044 10.8521 12.2065
49 3 10.1849 9.55841 11.6423
64 3 13.0867 10.5162 12.7096
66 3 13.1151 12.7121 11.2954
84 3 10.6482 12.731 11.9262
4 1 3.89595 4.97871 14.2388
ITEM: TIMESTEP
100
ITEM: NUMBER OF ATOMS
178
ITEM: BOX BOUNDS pp pp pp
0.0000000000000000e+00 1.3168533823700001e+01
0.0000000000000000e+00 1.3168533823700001e+01
0.0000000000000000e+00 3.5381309593600001e+01
ITEM: ATOMS id type x y z
108 4 3.23663 0.012026 3.07189
143 6 2.42675 0.868184 0.522179
149 6 1.25798 1.9726 2.47947
163 7 4.42883 2.09533 1.72487
104 4 7.47007 2.02766 1.07273
109 4 6.46278 3.27464 3.18742
147 6 6.51744 0.0851735 2.28562
159 7 5.96002 3.70951 0.448059
127 5 9.70113 2.8686 2.08173
144 6 10.9307 1.67137 0.40787
151 6 11.6465 1.51079 3.2995
167 7 12.611 0.189954 1.14442
101 4 2.32443 3.93665 1.35643
105 4 1.08361 5.22984 2.70859
120 5 2.48411 7.20303 1.65647
122 5 4.68017 5.11553 2.01492
102 4 6.18431 7.25561 0.899446
123 5 7.75246 5.03823 1.62962
145 6 8.17197 7.93287 2.19796
165 7 4.97318 8.17243 2.87982
103 4 9.74226 6.84607 0.970661
124 5 11.1025 5.20094 1.32816
125 5 11.6948 8.31419 1.82616
169 7 9.94547 6.02694 3.3437
106 4 1.36613 11.8775 1.50464
128 5 3.07056 9.95238 2.38476
142 6 4.23472 9.053 0.503652
161 7 0.692284 9.47481 3.41501
100 4 4.327 12.2185 1.10812
107 4 6.24191 10.234 1.5392
129 5 8.20769 11.3768 3.15176
166 7 7.85508 11.6512 0.675247
115 4 11.3968 11.3078 2.4002
121 5 9.54092 9.89061 1.22981
141 6 12.9027 10.1941 0.782664
148 6 9.60395 13.1427 1.53876
117 4 2.9 3.41411 6.6313
126 5 2.85511 3.47885 4.0257
130 5 2.45561 0.907322 5.54484
177 7 0.234419 2.64049 5.09979
131 5 5.19671 1.36195 4.5834
134 5 7.31087 2.5832 6.1227
171 7 8.3819 1.3772 4.07055
132 5 11.7512 4.51853 3.99006
139 6 9.2729 0.550898 6.98385
175 7 12.245 0.461013 6.23675
178 7 10.5741 2.61393 5.56859
136 5 3.38739 6.22357 6.31568
152 6 0.860621 5.3183 5.70871
153 6 1.45176 8.40617 6.00388
168 7 2.82942 6.96652 4.04228
110 4 6.7207 6.18257 3.88112
112 4 5.16777 4.39901 5.30675
133 5 5.55536 7.61017 5.85722
156 6 7.44295 5.65582 6.61064
172 7 8.47527 4.1628 4.49192
118 4 10.7384 8.89692 6.50001
137 5 10.53 5.79102 6.41893
150 6 12.5217 7.42881 4.51061
173 7 8.67326 7.44098 5.28261
99 4 1.15364 12.2861 6.85462
111 4 2.22325 11.4441 4.57199
113 4 0.268382 12.7272 4.01244
164 7 3.78886 9.32127 5.21005
176 7 4.19405 12.3966 6.26398
114 4 5.17181 11.3637 3.81438
155 6 7.07538 12.6983 5.53754
162 7 5.96037 10.4871 6.68171
170 7 6.98032 9.36201 4.49886
116 4 10.3971 12.4527 4.5478
154 6 10.3371 9.27797 4.02875
157 6 12.5472 10.6576 5.36312
174 7 8.99215 10.7221 6.11522
21 1 3.01195 2.66221 9.82408
32 2 3.12637 1.26551 8.055
61 3 1.79496 4.64959 8.80471
68 3 4.15824 1.45485 9.03886
79 3 1.6877 1.36923 9.39053
140 6 0.727866 2.08693 7.56668
23 1 7.57514 1.95254 9.6953
39 2 5.43611 3.79509 7.51354
69 3 4.16077 4.16883 9.14928
76 3 6.08059 2.68472 8.38416
78 3 7.93934 0.517724 8.55828
119 5 5.83344 0.206966 7.83249
30 2 11.6417 1.5588 7.86959
48 3 9.14419 2.96606 9.58596
67 3 12.3076 2.52564 9.15702
89 3 10.4895 1.04766 8.8594
160 7 9.29813 3.71146 7.52294
10 1 3.12351 5.71436 9.27626
12 1 2.10017 8.76409 10.4048
38 2 1.04178 5.35291 9.92908
44 3 3.50998 7.31795 8.32739
54 3 1.44503 8.83352 8.33019
75 3 1.87645 6.4977 10.537
20 1 5.03574 8.28639 8.50946
42 2 6.96967 6.1505 9.79859
45 3 9.00016 8.59611 9.0495
57 3 6.21449 5.38274 8.59725
82 3 6.09659 7.50867 9.89987
94 3 8.41485 6.43003 9.93181
158 6 7.73628 8.69866 7.45699
5 1 12.3722 7.37687 10.5412
18 1 11.7416 4.26674 9.46432
27 1 9.90848 7.04138 9.14229
77 3 11.7827 8.14792 8.95939
92 3 12.874 5.97844 9.32808
135 5 12.9333 7.18716 7.40871
14 1 12.7773 9.77149 8.88218
19 1 0.950911 12.504 9.97181
56 3 4.1668 9.6134 9.40164
70 3 0.0900947 9.16681 10.8481
96 3 0.798602 11.1621 8.7965
138 5 2.7078 10.3382 7.37147
7 1 4.75944 11.0929 9.45461
31 2 7.97729 11.5583 8.09353
74 3 6.29063 10.0428 10.6847
81 3 5.70744 12.9683 10.2423
98 3 8.09648 11.0906 9.40688
15 1 10.1863 9.66514 9.48062
88 3 11.2467 11.0807 9.55181
146 6 11.0735 11.7784 7.59734
9 1 0.279021 2.05279 10.65
36 2 3.18971 2.23135 12.7871
59 3 1.7704 2.12092 12.0078
71 3 2.75211 3.11985 14.0903
86 3 3.71161 0.821023 13.0373
93 3 4.00231 2.88727 11.6917
8 1 4.54726 1.07404 11.2279
26 1 5.34811 4.24976 10.7782
41 2 7.13006 2.31234 12.2965
55 3 7.11238 0.755846 12.3904
63 3 6.40056 2.63129 10.8771
73 3 6.53008 3.31096 13.3737
1 1 10.3898 1.98755 10.4855
22 1 12.6517 3.64604 12.3628
40 2 11.8405 0.61204 12.0761
47 3 11.6691 2.12102 11.8796
53 3 12.7323 0.265366 13.2722
95 3 8.59305 2.80722 12.0621
17 1 1.41244 6.60096 12.4956
37 2 4.22101 6.77211 12.4074
51 3 4.26574 6.01309 10.9545
52 3 0.629113 8.20693 13.1917
58 3 0.691882 4.32059 11.0508
83 3 2.84175 6.52924 13.2901
11 1 6.93073 5.05708 12.9071
34 2 6.04137 8.5183 11.1775
43 3 6.66886 5.27121 10.9926
46 3 5.09765 5.52071 13.0329
62 3 4.70608 8.18339 12.1064
85 3 7.40094 8.33699 11.757
24 1 8.7548 4.35737 10.8911
28 1 9.24276 7.96066 11.8769
33 2 10.7265 5.5548 12.2854
65 3 10.9394 4.42139 11.2064
72 3 11.9585 5.32708 13.1564
80 3 10.6961 6.78628 11.206
90 3 9.04463 5.58492 12.655
2 1 1.28073 0.11272 13.1249
13 1 4.08527 12.4326 13.9382
29 2 2.92464 11.1177 12.0104
35 2 0.398946 9.54053 12.5073
50 3 4.43756 11.4829 12.3105
60 3 2.49055 11.882 10.5449
87 3 2.26277 11.9486 13.3735
91 3 1.99773 9.86474 11.8198
3 1 6.49509 11.9213 11.7684
6 1 8.18358 10.1609 11.1778
16 1 8.87563 13.0268 12.5698
97 3 8.05956 11.5057 12.5703
25 1 10.981 11.007 11.8531
49 3 10.0837 9.8268 11.424
64 3 12.5366 10.601 12.7769
66 3 12.8814 0.302156 10.9786
84 3 10.5378 13.1266 11.9246
4 1 3.60207 4.67963 13.402
ITEM: TIMESTEP
200
ITEM: NUMBER OF ATOMS
178
ITEM: BOX BOUNDS pp pp pp
0.0000000000000000e+00 1.3168533823700001e+01
0.0000000000000000e+00 1.3168533823700001e+01
0.0000000000000000e+00 3.5381309593600001e+01
ITEM: ATOMS id type x y z
108 4 3.32817 0.0869688 3.30082
143 6 2.35019 0.889023 0.255046
149 6 1.10161 1.99584 2.77447
163 7 4.38334 2.04995 2.0662
104 4 7.56401 1.98073 1.01617
109 4 6.60754 3.20589 3.32746
147 6 6.39683 0.166601 2.35408
159 7 6.10328 3.51267 0.776819
127 5 9.5404 3.11707 2.25191
144 6 11.2843 2.08515 0.271717
151 6 11.4246 1.52404 3.18732
167 7 12.7726 0.0714858 1.0627
101 4 2.81252 3.66469 1.29289
105 4 1.00117 5.01385 2.76807
120 5 2.74281 6.77729 1.57896
122 5 4.69645 5.11028 2.28714
102 4 6.02246 7.04453 0.849625
123 5 7.90068 5.22663 1.69765
145 6 8.17324 8.12089 2.26481
165 7 4.89393 8.11244 3.02482
103 4 10.1634 6.92441 0.365215
124 5 11.4221 5.14709 1.31642
125 5 11.162 8.03873 1.96002
169 7 9.75047 6.27084 3.46559
106 4 1.86995 12.0551 1.53275
128 5 3.16011 10.0944 2.49135
142 6 4.31721 8.9209 0.183659
161 7 0.515995 9.41976 3.51115
100 4 4.43511 11.952 0.917132
107 4 6.30781 10.0863 1.64647
129 5 8.29501 11.3636 3.40033
166 7 7.69756 11.6629 0.442954
115 4 11.3584 11.4745 2.774
121 5 9.60493 10.0402 0.884568
141 6 0.0485548 10.2278 1.24133
148 6 9.54792 0.273303 1.52365
117 4 2.75285 3.588 6.69635
126 5 3.31212 4.09119 4.19239
130 5 2.25433 1.18867 5.27187
177 7 0.257081 2.89511 5.11443
131 5 5.11543 1.42033 4.87066
134 5 7.35216 2.51762 6.37713
171 7 8.61863 1.1522 3.90188
132 5 11.9103 4.2839 3.77657
139 6 9.17984 0.453759 6.8248
175 7 12.3113 0.33559 5.8042
178 7 10.449 2.42993 5.71682
136 5 3.49908 6.04928 6.55922
152 6 0.977755 5.51214 5.48341
153 6 1.30805 8.32591 5.88665
168 7 2.82023 6.93766 4.1042
110 4 6.7607 6.26785 3.82657
112 4 5.51773 4.47401 5.38296
133 5 5.64895 7.52623 5.90963
156 6 7.48856 5.46687 6.70351
172 7 8.81975 4.27163 4.84754
118 4 10.9022 8.61562 6.60371
137 5 10.7369 5.4951 6.11718
150 6 12.1235 7.28585 4.58011
173 7 8.73495 7.57157 5.55029
99 4 1.00118 12.237 7.11318
111 4 1.85292 11.2799 5.04429
113 4 0.381888 12.5827 3.56214
164 7 3.89256 9.5227 5.1997
176 7 4.05073 12.3114 6.1308
114 4 5.12019 11.4839 3.81741
155 6 6.95765 12.7052 5.49086
162 7 5.96941 10.4714 6.46196
170 7 7.03529 9.3197 4.47754
116 4 10.4418 12.5934 4.72832
154 6 10.0855 9.41835 4.0084
157 6 12.286 10.5372 5.58195
174 7 9.00422 10.7537 6.04285
21 1 2.66071 3.60686 9.57732
32 2 3.14393 0.632302 8.0363
61 3 1.83566 5.12022 9.03539
68 3 3.98716 0.66855 9.23795
79 3 1.69281 2.09089 9.36303
140 6 0.826761 1.71864 7.53549
23 1 7.3673 2.21107 9.73782
39 2 5.32918 3.56988 7.5065
69 3 4.32912 3.80076 8.90897
76 3 6.59341 3.22837 8.39116
78 3 7.77949 0.737847 8.65107
119 5 5.73093 0.172043 7.68941
30 2 11.3577 1.37613 7.95437
48 3 8.98705 3.26556 9.61582
67 3 12.2187 2.60832 8.87853
89 3 10.5764 0.818852 9.25518
160 7 9.38561 3.75782 7.49215
10 1 4.11228 5.75639 9.29537
12 1 1.93607 8.41854 10.1191
38 2 0.77764 5.63859 9.97852
44 3 3.16683 7.07796 8.54825
54 3 0.877102 8.54931 8.23292
75 3 1.58146 6.55306 11.0064
20 1 4.70816 8.18853 8.69828
42 2 6.97368 5.90563 9.41708
45 3 8.17819 8.45246 9.38913
57 3 5.89919 5.77765 8.43232
82 3 5.87254 7.9016 9.9216
94 3 8.6198 5.69042 9.0741
158 6 7.76842 8.89374 7.41067
5 1 11.6291 8.19925 10.663
18 1 12.5928 4.01091 7.4322
27 1 9.82635 7.03236 8.72238
77 3 11.1955 8.66769 8.89876
92 3 12.7193 6.25819 9.2314
135 5 12.6415 7.25569 7.32506
14 1 12.8333 9.70041 8.56829
19 1 0.744242 12.2198 10.0141
56 3 3.28338 9.49734 9.6343
70 3 0.188592 9.04945 10.5365
96 3 0.964748 11.112 8.82346
138 5 2.88485 10.4576 7.65362
7 1 5.04661 10.8247 9.38863
31 2 7.83739 11.6604 8.11451
74 3 6.13207 9.86698 10.9951
81 3 5.81199 12.3444 9.80997
98 3 8.46432 11.1998 9.44129
15 1 9.93295 9.9701 9.54674
88 3 11.4513 11.0576 9.23064
146 6 11.0288 11.7563 7.45103
9 1 0.366829 2.06753 10.6546
36 2 2.78252 2.5178 12.3018
59 3 1.51499 1.78636 12.0344
71 3 2.66932 3.45931 13.5301
86 3 3.88134 1.3235 12.4743
93 3 3.16407 3.39461 11.1137
8 1 4.88531 0.570429 11.1109
26 1 5.33788 4.09266 11.2913
41 2 6.79307 2.12993 12.291
55 3 6.3575 0.410974 12.3328
63 3 6.05701 2.46011 10.8817
73 3 6.57218 3.16641 13.3602
1 1 9.91121 2.18714 10.5704
22 1 12.2257 3.90224 11.8498
40 2 11.7724 0.795013 11.9828
47 3 11.5087 2.18922 11.3926
53 3 12.5274 0.497705 13.3054
95 3 8.31528 2.22984 11.786
17 1 1.53461 7.28532 12.6671
37 2 4.28033 6.3877 12.302
51 3 4.46426 5.79979 10.9496
52 3 0.343469 8.45188 12.9539
58 3 0.418883 4.25569 10.6504
83 3 3.12499 6.08883 13.1209
11 1 7.47301 4.72636 13.4697
34 2 5.98341 8.4617 11.4905
43 3 6.93218 5.40308 10.788
46 3 5.47376 5.69379 13.1545
62 3 4.70074 7.94787 12.2487
85 3 7.33111 8.09519 12.089
24 1 8.53167 4.47075 10.6544
28 1 8.71927 7.75554 11.1636
33 2 10.4752 5.65293 11.6514
65 3 10.6317 4.63954 10.4794
72 3 11.978 5.47465 12.2854
80 3 10.2751 7.05208 11.0743
90 3 9.00407 4.97839 12.3283
2 1 0.978801 0.133111 12.9541
13 1 3.96478 12.9106 13.4747
29 2 2.68307 11.1173 11.9287
35 2 0.69248 9.61326 12.0761
50 3 4.23469 11.3794 12.2718
60 3 2.22815 12.0288 10.8487
87 3 2.15487 12.0315 13.3251
91 3 2.25638 9.69375 11.9501
3 1 5.84484 11.7078 11.6887
6 1 7.98588 10.1696 11.0788
16 1 8.71662 12.8595 12.0552
97 3 7.67069 11.5686 12.2684
25 1 11.3862 11.3206 11.3069
49 3 10.006 9.81566 11.2802
64 3 0.056724 10.9006 12.0265
66 3 12.9325 0.237082 10.9919
84 3 10.4225 13.1276 12.1185
4 1 3.8594 4.66425 13.9771
ITEM: TIMESTEP
300
ITEM: NUMBER OF ATOMS
178
ITEM: BOX BOUNDS pp pp pp
0.0000000000000000e+00 1.3168533823700001e+01
0.0000000000000000e+00 1.3168533823700001e+01
0.0000000000000000e+00 3.5381309593600001e+01
ITEM: ATOMS id type x y z
108 4 3.24904 12.8266 3.27544
143 6 2.60655 1.09659 0.306069
149 6 1.25024 2.04072 2.3705
163 7 4.27998 2.0035 2.22143
104 4 7.77174 1.71433 0.95153
109 4 6.90156 3.26467 3.27206
147 6 6.31031 0.306475 2.43256
159 7 6.17766 3.44715 0.997572
127 5 9.61558 3.25912 2.25948
144 6 11.7302 2.61272 0.830767
151 6 11.6382 1.18884 3.23331
167 7 12.749 0.171263 1.02499
101 4 2.86957 3.81887 1.06297
105 4 1.59313 4.90518 2.60662
120 5 2.83266 7.06765 1.60078
122 5 4.88997 4.99206 2.44796
102 4 5.92391 6.90353 0.941285
123 5 7.97247 5.28361 1.45486
145 6 8.17024 8.22833 2.0376
165 7 5.12104 8.21571 3.13264
103 4 9.93401 6.61941 0.42502
124 5 11.5167 5.3032 1.39934
125 5 11.5006 8.64355 1.72866
169 7 9.87402 6.35806 3.1618
106 4 1.87585 12.1759 1.29724
128 5 2.84545 9.93592 2.61365
142 6 4.31119 8.83618 0.324467
161 7 0.322412 9.26076 3.56295
100 4 4.55592 11.9906 0.934579
107 4 6.3492 10.0208 1.43381
129 5 8.11575 11.5324 2.7543
166 7 7.43976 11.959 0.269707
115 4 11.3566 11.5244 2.3801
121 5 9.49241 10.302 0.915639
141 6 0.26717 10.5114 1.21801
148 6 9.63644 0.115668 1.34837
117 4 2.63835 3.25435 6.58249
126 5 3.02715 3.63091 4.31975
130 5 1.93498 0.861164 5.19399
177 7 0.311389 3.04368 5.18216
131 5 5.05399 1.63078 5.15616
134 5 7.20862 2.49274 6.21574
171 7 8.3753 1.40386 4.08111
132 5 11.6251 4.37644 3.70995
139 6 9.12273 0.419699 7.00412
175 7 12.5505 0.38982 5.72123
178 7 10.5003 2.26576 5.3995
136 5 3.04871 6.22426 6.58379
152 6 0.814444 5.70825 5.34308
153 6 1.16555 8.59053 6.00332
168 7 2.86673 7.15191 4.15285
110 4 7.01947 6.4499 3.92756
112 4 5.50176 4.44355 5.47503
133 5 5.58533 7.35202 5.98698
156 6 7.63223 5.58538 6.81324
172 7 8.71004 4.2601 4.61959
118 4 10.6427 8.74883 6.69709
137 5 10.8328 5.35224 6.11757
150 6 11.9683 7.47369 4.54788
173 7 8.96155 7.39806 5.55245
99 4 1.05151 12.0663 7.11593
111 4 2.08005 11.0332 4.9347
113 4 0.21497 12.224 3.55436
164 7 3.92884 9.19868 5.41583
176 7 3.95154 12.2468 6.16328
114 4 5.14114 11.045 3.76944
155 6 7.06153 12.4711 5.21945
162 7 5.81797 10.5671 6.83996
170 7 7.06804 9.4066 4.49037
116 4 10.0652 12.4867 4.53152
154 6 10.1136 9.52333 3.94819
157 6 12.2137 10.4 5.62763
174 7 8.97491 10.6949 6.22585
21 1 2.10898 3.40109 9.60998
32 2 3.12484 0.604356 7.82525
61 3 1.64776 5.02171 8.93277
68 3 3.73314 1.38886 9.14172
79 3 1.23995 1.49261 9.57474
140 6 0.76707 1.47728 7.69003
23 1 7.39936 2.23016 9.10001
39 2 4.98668 3.93524 7.68687
69 3 3.97974 3.85671 8.89064
76 3 6.3687 3.16726 8.12991
78 3 7.97088 0.270617 8.69312
119 5 5.8263 13.1526 7.80184
30 2 11.5809 1.81298 7.84832
48 3 9.17683 3.00908 9.50301
67 3 12.3191 2.71277 8.96628
89 3 10.8979 0.743451 8.74605
160 7 9.57413 3.64649 7.66475
10 1 3.6526 5.60398 9.58982
12 1 2.43157 8.19816 9.69863
38 2 0.731625 5.60844 10.0397
44 3 3.59525 7.13035 8.57073
54 3 1.51808 8.23608 8.21852
75 3 1.60858 6.39364 11.0112
20 1 4.94957 8.29918 8.87034
42 2 6.53576 6.01851 9.71018
45 3 8.37395 8.60462 9.5032
57 3 5.58102 5.61513 8.66765
82 3 6.04546 7.41431 10.1193
94 3 7.92861 6.27936 8.99098
158 6 7.61903 8.8254 7.62901
5 1 11.6864 8.02245 10.4439
18 1 0.00778202 3.92863 7.74975
27 1 9.63596 7.01073 8.75876
77 3 11.2665 8.48247 8.66729
92 3 12.6148 6.4377 9.60619
135 5 12.5979 6.70265 7.46403
14 1 13.1354 9.35989 8.50332
19 1 0.801051 12.4307 10.2344
56 3 3.85193 9.6674 9.36117
70 3 0.178223 8.9183 10.2786
96 3 1.17119 10.794 8.8074
138 5 2.92776 10.2093 7.51084
7 1 5.09787 10.9686 9.81816
31 2 7.73642 11.7867 8.08233
74 3 5.97809 9.87781 10.7679
81 3 5.7272 13.0559 9.94443
98 3 8.20885 11.4019 9.53251
15 1 9.97706 9.69712 9.284
88 3 11.6207 11.2238 9.50239
146 6 11.1218 12.0003 7.61736
9 1 13.0031 2.12468 10.7163
36 2 2.54047 2.48628 12.6343
59 3 1.1238 1.92698 12.3015
71 3 2.79202 3.23147 13.923
86 3 3.64368 1.45465 12.2576
93 3 2.69024 3.60136 11.3871
8 1 4.21231 0.452376 10.64
26 1 4.368 3.57147 10.8227
41 2 6.51294 1.6146 11.6472
55 3 6.06234 0.384389 12.6606
63 3 5.67095 2.14947 10.66
73 3 6.89781 2.78205 12.5112
1 1 9.43724 1.06902 9.96679
22 1 11.9253 4.20754 11.6797
40 2 11.3657 0.862089 11.9982
47 3 11.0487 2.30613 11.5907
53 3 11.9539 0.679231 13.3078
95 3 8.01801 1.05694 11.1654
17 1 1.1231 7.01799 12.6698
37 2 4.15058 6.34097 12.6364
51 3 4.23551 5.44569 11.3653
52 3 0.120382 8.69859 12.777
58 3 0.199246 4.16976 10.7026
83 3 2.86079 6.37605 13.6635
11 1 6.44871 4.65109 12.6832
34 2 6.13592 8.22199 11.3625
43 3 6.90729 5.05626 10.8612
46 3 5.36644 5.71825 13.5309
62 3 4.60317 7.78011 12.1251
85 3 7.46716 7.86676 11.9269
24 1 8.82808 4.39143 11.0345
28 1 9.16142 8.15966 11.8212
33 2 10.3022 5.73562 11.7118
65 3 10.7218 4.82588 10.5959
72 3 11.7424 6.03593 12.2194
80 3 9.9905 7.03219 10.8135
90 3 8.97997 5.4179 12.4398
2 1 0.742644 0.252084 13.0957
13 1 4.3266 0.0241877 13.1828
29 2 2.82255 11.6066 11.8449
35 2 0.475684 9.69389 11.5851
50 3 4.27564 11.4265 12.2214
60 3 2.45468 12.5534 10.6607
87 3 2.17503 12.2772 13.1439
91 3 2.14923 10.0745 11.5062
3 1 6.14908 11.4984 11.9222
6 1 7.93636 10.1009 10.5749
16 1 8.45195 12.8579 12.1118
97 3 8.06333 11.0816 12.3174
25 1 11.3453 10.9102 11.1775
49 3 10.0601 9.52421 10.9389
64 3 12.9491 11.0149 11.8376
66 3 12.7264 0.346646 11.0274
84 3 10.3286 0.0729919 11.3689
4 1 3.65702 4.92683 14.3598
ITEM: TIMESTEP
400
ITEM: NUMBER OF ATOMS
178
ITEM: BOX BOUNDS pp pp pp
0.0000000000000000e+00 1.3168533823700001e+01
0.0000000000000000e+00 1.3168533823700001e+01
0.0000000000000000e+00 3.5381309593600001e+01
ITEM: ATOMS id type x y z
108 4 3.34394 13.0285 3.24235
143 6 3.05632 1.26929 0.092417
149 6 1.29225 1.97646 2.49464
163 7 4.22352 2.08561 2.32294
104 4 7.81742 1.88365 0.849258
109 4 6.37874 3.21565 3.47647
147 6 6.29797 0.292757 2.48013
159 7 6.14358 3.17626 0.819513
127 5 9.69659 2.855 2.31825
144 6 12.4031 3.08815 1.32063
151 6 11.8177 1.26021 3.46977
167 7 12.7042 0.296042 0.929517
101 4 3.0434 3.98759 1.13843
105 4 1.41899 5.24737 2.40357
120 5 2.83626 7.04616 1.65296
122 5 4.49038 5.3277 2.88614
102 4 6.02503 7.06185 1.06447
123 5 7.77319 4.89189 1.79773
145 6 8.17916 8.22435 2.00141
165 7 5.17543 8.12656 3.06051
103 4 9.72546 6.9327 0.682832
124 5 11.8259 5.67452 1.40964
125 5 11.2235 8.62796 1.52678
169 7 10.0147 6.23313 3.15053
106 4 1.88326 12.4181 0.941547
128 5 2.85863 10.0338 2.38114
142 6 4.21824 9.01696 0.596458
161 7 0.18226 9.25901 3.32647
100 4 4.42981 11.9637 1.21026
107 4 6.35789 10.315 1.46115
129 5 8.19217 11.4227 3.15029
166 7 7.42187 12.326 0.410067
115 4 11.3436 11.308 2.36006
121 5 9.09331 10.3981 0.618868
141 6 0.299816 10.5457 0.866706
148 6 9.7609 0.149463 1.43379
117 4 2.76522 3.38951 6.62364
126 5 2.82365 3.68999 4.3827
130 5 2.01006 0.873963 5.24762
177 7 0.250313 2.75977 5.35811
131 5 5.10517 1.24763 4.81547
134 5 7.46738 2.85999 6.24188
171 7 8.37835 1.14946 3.93926
132 5 12.0865 4.26454 3.56373
139 6 9.20526 0.550134 6.7145
175 7 12.2739 0.228868 5.89455
178 7 10.2958 2.50172 5.3707
136 5 3.06562 6.00639 6.56282
152 6 0.596138 5.69871 5.02656
153 6 1.00769 8.51303 6.15223
168 7 2.77852 7.1714 4.23394
110 4 6.99134 6.23241 3.75072
112 4 5.17674 4.62394 5.47775
133 5 5.7882 7.22298 5.87408
156 6 7.79861 5.5756 6.8232
172 7 8.6988 4.50804 4.56646
118 4 10.7218 8.76654 6.70435
137 5 10.6751 5.36249 6.00839
150 6 11.8489 7.57858 4.81501
173 7 9.01064 7.50938 5.36495
99 4 1.10046 11.7012 6.61075
111 4 2.15065 10.8286 4.93843
113 4 0.571566 12.0182 3.2663
164 7 4.01978 9.13794 5.61027
176 7 4.09405 12.1267 6.1135
114 4 5.10769 11.1694 3.87514
155 6 6.95356 12.4441 5.49568
162 7 5.94255 10.2743 6.79255
170 7 7.26841 9.34708 4.7405
116 4 10.2525 12.3795 4.55177
154 6 10.0819 9.54115 3.73209
157 6 12.1171 10.6783 5.52875
174 7 9.05468 10.7203 6.21913
21 1 2.30852 2.83678 9.60974
32 2 3.27527 0.481795 7.53998
61 3 1.30217 4.33947 9.14123
68 3 3.85036 1.06445 8.74583
79 3 1.18076 1.57029 9.4171
140 6 0.807691 1.31073 7.50671
23 1 7.07407 1.70167 9.85035
39 2 5.00416 3.8599 7.86816
69 3 3.9707 3.73281 9.13593
76 3 6.07475 2.83789 8.41197
78 3 7.79096 0.613095 8.37431
119 5 5.85731 13.1411 7.64236
30 2 11.7659 2.0343 7.31759
48 3 8.61256 2.79246 9.27951
67 3 12.0627 2.4617 8.77341
89 3 10.2004 0.323159 8.76484
160 7 9.56778 3.35835 7.50399
10 1 3.12737 5.28923 9.76861
12 1 2.45733 8.12384 10.9623
38 2 0.488289 5.36919 9.94985
44 3 2.77609 6.77157 8.44694
54 3 0.660379 8.55888 8.31242
75 3 1.3189 6.34458 10.6405
20 1 4.75846 7.67772 8.75256
42 2 6.74287 5.9031 9.888
45 3 8.68061 8.63296 9.43637
57 3 5.48054 5.3726 8.63367
82 3 6.02091 7.42313 10.274
94 3 8.20506 5.6676 9.12033
158 6 7.71041 8.5141 7.39401
5 1 12.0376 7.737 10.7948
18 1 12.6844 4.07962 7.66077
27 1 9.82449 6.94085 8.87471
77 3 11.3767 8.49185 8.95898
92 3 12.5349 6.25743 9.46945
135 5 12.6413 7.03638 7.3651
14 1 12.7213 9.59685 8.89652
19 1 0.78472 12.5558 9.69544
56 3 3.26166 8.95393 9.5358
70 3 0.384745 9.05115 10.6569
96 3 0.708321 11.0378 8.6005
138 5 2.80999 10.1346 7.74911
7 1 4.63986 10.884 10.0616
31 2 7.81886 11.4517 8.0726
74 3 5.78061 9.95473 10.8903
81 3 5.76342 12.8349 9.77339
98 3 8.50721 11.4451 9.40492
15 1 10.0587 9.53081 9.68973
88 3 11.4612 11.2705 9.36999
146 6 11.2471 12.1944 7.60447
9 1 12.6223 1.90021 10.349
36 2 2.27596 2.36596 12.5737
59 3 0.915768 2.0933 13.0826
71 3 2.88326 3.11421 13.8385
86 3 3.15482 1.33887 12.004
93 3 2.50392 3.42302 11.4405
8 1 4.31882 0.632969 10.3228
26 1 4.47787 3.64765 11.1262
41 2 6.44182 1.67903 12.2244
55 3 6.0663 0.518465 13.0394
63 3 5.41848 2.12179 11.267
73 3 7.21056 2.8358 12.8161
1 1 8.96227 0.591151 9.90836
22 1 11.7242 3.83369 11.7686
40 2 11.0844 0.607271 12.0128
47 3 11.2579 1.99915 11.7332
53 3 11.728 0.0692744 13.3122
95 3 7.77457 0.930309 11.2101
17 1 0.420209 6.53548 12.4817
37 2 4.17778 6.3786 12.5409
51 3 4.34596 5.59182 11.1271
52 3 0.696883 8.55877 13.0907
58 3 0.09327 4.3378 11.1081
83 3 2.70446 6.39541 13.1529
11 1 7.00677 5.11811 12.9742
34 2 6.02356 8.36436 11.4812
43 3 6.96387 4.90142 11.12
46 3 5.09007 5.52689 13.5197
62 3 4.62889 7.91632 12.3441
85 3 7.34296 8.16485 12.0524
24 1 8.56567 3.9416 10.8846
28 1 9.0138 7.87039 12.2361
33 2 10.2961 5.82252 11.6586
65 3 10.3419 4.665 10.628
72 3 11.7196 5.84834 12.2736
80 3 10.15 7.18633 10.9635
90 3 8.93306 5.76557 12.5173
2 1 0.345022 0.155127 12.7833
13 1 3.86444 0.12995 13.0666
29 2 2.50671 11.6073 11.7303
35 2 0.749252 9.6321 12.0316
50 3 4.10363 11.9477 12.0071
60 3 2.45372 12.0317 10.2633
87 3 1.70327 12.4581 12.6476
91 3 2.451 10.0428 11.9817
3 1 5.84946 11.2973 12.3595
6 1 7.8762 10.2851 10.9589
16 1 8.43873 12.6178 12.5553
97 3 7.5438 11.1749 12.7568
25 1 11.1227 11.19 11.3393
49 3 10.04 9.87209 11.6025
64 3 12.9631 10.8201 11.9714
66 3 12.4456 0.0718954 10.9519
84 3 9.83352 13.0597 11.4318
4 1 3.21446 4.98858 14.0542
ITEM: TIMESTEP
500
ITEM: NUMBER OF ATOMS
178
ITEM: BOX BOUNDS pp pp pp
0.0000000000000000e+00 1.3168533823700001e+01
0.0000000000000000e+00 1.3168533823700001e+01
0.0000000000000000e+00 3.5381309593600001e+01
ITEM: ATOMS id type x y z
108 4 3.41966 12.7866 3.16211
143 6 3.48302 1.50121 0.149206
149 6 1.52468 1.8404 2.68048
163 7 4.20323 2.16766 2.5321
104 4 7.95383 1.98763 1.2709
109 4 6.67726 3.16904 3.20907
147 6 6.20125 0.290415 2.58077
159 7 5.58916 3.01492 0.727493
127 5 10.0452 3.33491 2.3211
144 6 12.9428 3.45543 1.00394
151 6 11.8036 1.37435 3.21062
167 7 12.6574 0.272096 1.12876
101 4 2.83435 4.01359 1.26488
105 4 1.10435 5.24523 2.0397
120 5 2.70393 7.22073 1.5254
122 5 4.84753 5.2126 2.59202
102 4 5.88084 7.07445 1.07529
123 5 7.8866 5.06143 1.70502
145 6 8.07263 7.99717 2.38547
165 7 4.81359 8.37323 3.21196
103 4 9.55656 7.00038 0.319925
124 5 11.9793 6.18333 1.45773
125 5 10.9576 8.5765 1.458
169 7 9.91461 6.13821 3.12815
106 4 1.93506 12.7296 0.785896
128 5 2.97161 10.2041 2.36519
142 6 4.33039 9.18025 0.445839
161 7 0.21009 9.3517 3.16345
100 4 4.51497 12.1438 0.751695
107 4 6.29013 10.2322 1.72887
129 5 8.23403 11.4486 3.22788
166 7 7.66534 12.4296 0.470122
115 4 11.4786 11.4632 2.33698
121 5 9.28761 10.3589 0.92974
141 6 0.208811 10.5821 0.807262
148 6 9.7119 0.22271 1.77479
117 4 2.75111 3.02962 6.69732
126 5 2.87647 3.97931 4.29842
130 5 2.32144 0.763301 5.3546
177 7 0.243648 2.75082 5.38109
131 5 4.91199 1.34986 5.23256
134 5 7.14888 2.24943 6.13919
171 7 8.4271 1.3051 3.93245
132 5 11.87 4.35201 3.85773
139 6 9.24856 0.588061 6.79586
175 7 12.3189 0.276194 5.74531
178 7 10.3476 2.51882 5.16619
136 5 3.07396 5.85117 6.38711
152 6 0.747922 5.64484 5.24419
153 6 1.09083 8.59355 5.95483
168 7 2.65649 7.345 4.15425
110 4 6.92615 6.28402 3.90765
112 4 5.47549 4.29394 5.46253
133 5 5.61104 7.15742 6.02057
156 6 7.85915 5.43131 6.72469
172 7 8.60442 4.16476 4.62227
118 4 10.696 8.89667 6.78814
137 5 10.7871 5.3562 6.15199
150 6 11.993 7.52422 4.59684
173 7 8.9452 7.46566 5.21012
99 4 0.934731 11.8658 6.72963
111 4 1.98243 10.6485 4.84819
113 4 0.554377 12.3729 3.4803
164 7 4.00262 9.09203 5.62019
176 7 3.93997 11.9204 6.31566
114 4 5.13224 11.219 3.93516
155 6 7.06124 12.3981 5.54784
162 7 6.09603 10.2124 6.83959
170 7 7.00617 9.34621 4.42549
116 4 10.2862 12.5819 4.60565
154 6 10.127 9.50256 3.80667
157 6 12.2613 10.4889 5.33017
174 7 9.20116 10.6571 6.07198
21 1 2.29595 1.9727 10.0474
32 2 3.15751 0.393709 7.62541
61 3 1.11695 4.47628 8.91742
68 3 3.40496 0.578988 9.13079
79 3 0.628001 1.03701 9.68851
140 6 0.895588 1.15617 7.66475
23 1 6.99149 2.02818 9.65548
39 2 4.96856 3.6592 8.10244
69 3 4.05308 3.7347 9.24444
76 3 6.29259 3.00119 8.39726
78 3 7.56324 1.01892 8.14577
119 5 5.57616 13.0079 7.81014
30 2 11.4822 2.07148 7.22701
48 3 8.74291 2.83243 9.54233
67 3 11.3892 2.83232 8.52667
89 3 10.1442 0.333162 8.95383
160 7 9.30956 3.52034 7.60885
10 1 2.70546 4.89438 9.80212
12 1 2.10203 7.76688 9.86868
38 2 0.087197 5.01649 9.95617
44 3 3.2613 6.40405 8.47762
54 3 1.2939 8.44142 8.18323
75 3 0.997465 6.09755 10.8926
20 1 4.62949 7.64688 8.57606
42 2 6.70429 6.08669 9.4522
45 3 8.53037 8.07126 9.64859
57 3 5.71168 5.3888 8.36177
82 3 6.01277 7.31392 9.69733
94 3 8.12412 5.60194 9.12638
158 6 7.96398 8.46765 7.44946
5 1 12.3814 7.21617 11.1291
18 1 12.87 4.13516 7.74958
27 1 10.1035 6.58817 9.06181
77 3 11.5752 8.49138 8.82552
92 3 12.2142 5.98634 9.39037
135 5 12.5041 7.05543 7.44394
14 1 13.0534 9.58627 8.6755
19 1 1.04317 12.4034 10.0128
56 3 3.55416 8.93451 9.38141
70 3 0.0947668 8.9526 10.452
96 3 0.643171 11.0322 9.10014
138 5 2.81343 10.1087 7.69097
7 1 4.92501 11.3662 9.98222
31 2 7.93698 11.2766 7.95759
74 3 5.60037 9.62323 10.5193
81 3 5.92396 13.0306 9.88427
98 3 7.82297 11.2136 9.49048
15 1 9.67537 9.56156 9.38058
88 3 11.203 11.114 9.39472
146 6 11.1179 11.911 7.68773
9 1 11.401 1.21256 9.54173
36 2 2.29382 2.59521 12.2286
59 3 0.921807 2.3949 12.6103
71 3 3.39789 2.73031 13.4987
86 3 3.02495 1.21422 11.6746
93 3 2.7065 3.71136 11.2228
8 1 4.77994 0.70863 10.6659
26 1 5.04782 4.22807 10.6844
41 2 6.42215 2.19152 12.4628
55 3 5.39554 1.02742 13.047
63 3 5.63812 2.73541 11.2083
73 3 6.89538 3.1883 13.4153
1 1 8.72525 12.9471 9.86878
22 1 11.6294 3.33087 12.0792
40 2 11.1624 0.334497 11.9129
47 3 10.8732 1.64794 11.3768
53 3 11.5761 0.171679 13.4567
95 3 7.5902 1.23823 11.7145
17 1 1.16359 6.27101 12.6683
37 2 4.07577 6.39423 12.1778
51 3 3.89862 5.93861 10.7668
52 3 0.430696 7.97087 12.642
58 3 12.9193 3.93097 10.9137
83 3 3.1036 5.91898 13.2494
11 1 7.03187 5.6217 13.0167
34 2 5.69483 8.37334 11.1395
43 3 6.66046 5.21525 10.8348
46 3 5.13333 5.32311 12.6756
62 3 4.62639 7.87094 12.0384
85 3 7.01337 8.48154 11.8922
24 1 8.3185 4.50162 10.803
28 1 8.85809 7.97191 11.3222
33 2 10.2332 5.91577 12.2204
65 3 10.1421 4.6609 11.182
72 3 11.6005 5.82913 12.7951
80 3 10.4616 7.14779 11.0248
90 3 8.84639 6.26789 12.8872
2 1 0.0507647 12.0335 12.7751
13 1 3.71975 1.04116 13.3783
29 2 2.95394 11.1501 11.7646
35 2 0.60756 9.30544 11.8874
50 3 4.50272 11.8344 11.7033
60 3 2.81472 11.2794 10.2193
87 3 2.16913 12.1063 12.7279
91 3 2.15225 9.67675 11.8171
3 1 5.73039 12.5367 12.8541
6 1 7.60796 10.4938 11.3936
16 1 8.65464 13.0561 12.6762
97 3 7.20594 11.9035 12.4632
25 1 10.7161 10.8675 11.3789
49 3 9.37219 9.97162 11.2716
64 3 12.7291 10.3487 12.4878
66 3 12.5254 12.932 11.1489
84 3 10.0469 12.5064 11.4422
4 1 3.88751 4.37805 13.727
ITEM: TIMESTEP
600
ITEM: NUMBER OF ATOMS
178
ITEM: BOX BOUNDS pp pp pp
0.0000000000000000e+00 1.3168533823700001e+01
0.0000000000000000e+00 1.3168533823700001e+01
0.0000000000000000e+00 3.5381309593600001e+01
ITEM: ATOMS id type x y z
108 4 3.28971 12.9544 3.27299
143 6 3.62442 1.38644 0.527512
149 6 1.42361 1.80306 2.5041
163 7 4.09775 2.3197 3.25058
104 4 7.77367 2.28212 1.07902
109 4 6.53337 3.32266 3.23952
147 6 6.27545 0.417598 2.45341
159 7 5.54831 2.97654 0.766663
127 5 9.87037 3.28069 2.27393
144 6 13.0721 3.49541 1.05629
151 6 11.8296 1.733 3.23613
167 7 12.7572 0.342259 1.05776
101 4 2.55881 3.75278 1.29499
105 4 1.44893 5.5026 2.76184
120 5 2.76515 7.26136 1.26318
122 5 4.41604 5.08889 2.15058
102 4 5.85193 7.31424 1.12916
123 5 7.55801 5.13824 1.39574
145 6 8.02004 8.18605 2.20659
165 7 4.87519 8.25693 3.0934
103 4 9.36825 6.84585 0.533446
124 5 12.1742 6.30493 1.77465
125 5 11.2046 8.6415 1.5856
169 7 9.83535 5.99548 3.12516
106 4 2.15803 12.6758 1.20268
128 5 2.86425 10.3004 2.15222
142 6 4.43666 9.16563 0.0501547
161 7 0.376971 9.286 3.08484
100 4 4.64468 12.0179 0.841863
107 4 6.26327 10.3816 1.67186
129 5 8.10972 11.6036 3.13335
166 7 7.64822 12.2202 0.571668
115 4 11.3439 11.5975 2.57672
121 5 9.18982 10.2846 1.06587
141 6 0.304551 10.9365 1.00114
148 6 9.60806 0.339967 1.66706
117 4 2.91654 2.89243 6.61678
126 5 2.89837 4.15612 4.32996
130 5 1.97538 0.665831 5.2972
177 7 0.453688 2.83175 5.19356
131 5 5.11777 1.13474 5.26482
134 5 7.38598 2.3447 6.33704
171 7 8.60397 1.39397 4.08061
132 5 12.0998 4.44725 3.53676
139 6 9.49417 0.447358 7.06771
175 7 12.42 0.330051 5.8789
178 7 10.5717 2.3567 5.50099
136 5 3.48574 6.09476 6.31137
152 6 0.861816 5.51203 5.59541
153 6 1.08552 8.49475 5.97718
168 7 2.29638 7.37125 4.01582
110 4 6.5982 6.1812 3.79479
112 4 5.36302 4.07263 5.20623
133 5 5.76849 7.35358 6.06127
156 6 7.47688 5.44378 6.60938
172 7 8.70154 4.2464 4.50684
118 4 10.846 8.43305 6.29899
137 5 10.5599 5.38927 5.95885
150 6 12.1335 7.32077 4.20753
173 7 8.92113 7.36304 5.33649
99 4 1.07049 11.697 7.0166
111 4 2.22368 10.8971 4.76786
113 4 0.426844 12.2273 3.34851
164 7 3.96791 9.07152 5.62462
176 7 3.96588 12.003 6.38512
114 4 5.13734 11.1433 3.97866
155 6 7.08565 12.5278 5.44292
162 7 5.93929 10.2996 6.84146
170 7 7.02572 9.25684 4.66855
116 4 10.1994 12.5537 4.49307
154 6 10.1552 9.44227 3.88779
157 6 12.3226 10.5294 5.43205
174 7 8.88705 10.5722 6.07997
21 1 1.48159 2.85914 10.3961
32 2 2.97729 0.352613 7.84078
61 3 1.10901 4.17614 8.91743
68 3 3.18442 0.929817 9.18603
79 3 0.59593 1.09704 9.68927
140 6 0.667942 1.32019 7.6617
23 1 7.29422 2.19626 9.77871
39 2 5.35489 3.71341 7.65765
69 3 4.03472 3.62586 8.4762
76 3 6.5353 2.9037 8.2856
78 3 7.94858 0.379385 8.82949
119 5 6.06094 13.1426 7.79257
30 2 11.5344 1.80102 7.41505
48 3 9.09935 2.76113 9.41042
67 3 12.2018 2.57096 8.82713
89 3 10.5698 13.0643 9.02677
160 7 9.35239 3.46208 7.34761
10 1 2.71591 5.17593 9.32511
12 1 1.90795 7.81769 10.2228
38 2 0.0230661 4.9031 9.7775
44 3 2.75446 6.659 8.28381
54 3 0.73792 8.26855 8.15062
75 3 0.900658 6.00242 10.7586
20 1 4.32313 7.70354 8.76179
42 2 6.67561 6.11513 9.41781
45 3 8.54979 8.02738 9.21585
57 3 5.72826 5.18185 8.69819
82 3 5.98353 7.52966 9.80476
94 3 8.24277 5.974 8.7516
158 6 7.86318 8.54185 7.39651
5 1 12.4265 7.09076 10.5565
18 1 12.3281 3.97197 7.57905
27 1 9.97655 6.855 8.68713
77 3 11.3126 8.25894 8.70825
92 3 12.4535 5.99068 8.98521
135 5 12.5651 6.85887 7.18489
14 1 12.6692 9.3786 8.70772
19 1 0.925859 12.4118 10.2672
56 3 3.10956 8.88348 9.48875
70 3 0.318445 8.73824 10.5141
96 3 0.246303 11.0927 8.89468
138 5 2.69382 9.95999 7.87849
7 1 4.70861 11.0537 9.86974
31 2 8.02313 11.219 8.06498
74 3 5.95807 9.87042 10.524
81 3 5.48343 12.8419 10.1714
98 3 8.47547 11.1029 9.55886
15 1 9.66964 9.54999 9.30523
88 3 11.3587 10.5954 9.24483
146 6 11.0314 11.6811 7.34496
9 1 11.7807 1.02082 9.71806
36 2 1.99997 2.79023 12.5481
59 3 0.573071 2.91632 12.7306
71 3 3.08854 2.82363 13.7129
86 3 2.39937 1.5223 11.5616
93 3 2.65354 3.8717 11.3543
8 1 3.98977 1.45675 10.5915
26 1 4.49338 4.24791 10.4626
41 2 6.30043 2.21751 12.1628
55 3 5.38721 0.889388 12.3972
63 3 5.73157 2.77036 10.7917
73 3 6.36912 3.52363 13.0559
1 1 9.16206 12.9476 10.2245
22 1 11.0825 3.1058 11.2443
40 2 11.5143 12.9644 12.0555
47 3 11.3796 1.37197 11.2138
53 3 11.9665 13.0932 13.444
95 3 7.73505 1.59193 12.0709
17 1 1.23504 5.91676 12.597
37 2 3.99986 6.58403 12.1034
51 3 3.71976 5.99602 10.6491
52 3 0.400271 7.60145 12.7693
58 3 12.4391 4.19739 10.7963
83 3 2.91132 6.19301 13.056
11 1 7.21472 5.33625 12.5719
34 2 5.85402 8.43213 11.1585
43 3 7.05954 5.28185 10.7651
46 3 5.27106 5.88424 12.6264
62 3 4.45453 8.01941 11.7377
85 3 7.21451 8.19619 11.869
24 1 8.69539 4.3598 10.0004
28 1 9.00994 7.97521 12.1309
33 2 10.1848 5.81927 12.3676
65 3 9.53484 4.38201 11.6807
72 3 11.2571 5.53113 13.1948
80 3 10.7348 6.72206 11.2291
90 3 8.85947 6.4241 13.0777
2 1 0.225643 11.7453 13.1223
13 1 3.72406 0.886942 13.1183
29 2 2.53206 11.0855 11.6941
35 2 0.536776 9.0414 12.1436
50 3 4.07551 11.295 12.1623
60 3 2.53022 11.309 10.1282
87 3 1.65967 12.2927 12.1149
91 3 2.11477 9.63185 11.8021
3 1 5.72364 11.9829 11.8102
6 1 8.06667 10.4378 11.4628
16 1 8.54859 12.9355 12.6943
97 3 7.36752 11.8225 12.1405
25 1 11.1025 10.7188 11.2204
49 3 9.70822 9.64457 11.4192
64 3 12.7976 10.3003 12.7814
66 3 12.2912 12.2996 10.9903
84 3 10.127 12.4726 11.8694
4 1 4.81582 4.14542 13.6784
ITEM: TIMESTEP
700
ITEM: NUMBER OF ATOMS
178
ITEM: BOX BOUNDS pp pp pp
0.0000000000000000e+00 1.3168533823700001e+01
0.0000000000000000e+00 1.3168533823700001e+01
0.0000000000000000e+00 3.5381309593600001e+01
ITEM: ATOMS id type x y z
108 4 3.75172 12.8748 3.38052
143 6 3.78516 1.1309 0.999162
149 6 1.35594 1.9057 2.81306
163 7 4.08029 2.48385 3.24476
104 4 7.96319 1.97158 0.976622
109 4 6.66544 3.14813 3.457
147 6 6.31815 0.508647 2.4466
159 7 5.41983 3.00262 1.20464
127 5 9.78332 3.24529 2.25635
144 6 12.6721 3.46291 1.16616
151 6 11.6744 1.15034 3.38449
167 7 12.5373 0.605603 1.06206
101 4 2.646 3.82258 1.3414
105 4 1.20803 5.21702 2.43522
120 5 2.67528 7.4413 1.63364
122 5 4.53733 5.38762 2.31554
102 4 6.04666 7.11693 0.65925
123 5 7.53102 4.95533 1.64522
145 6 8.06965 8.20932 2.23517
165 7 4.9022 8.24804 2.97906
103 4 9.43316 6.84588 0.727042
124 5 12.5182 6.34992 1.3583
125 5 11.1984 8.65811 1.59059
169 7 9.795 6.29602 2.95501
106 4 1.84655 12.4299 1.08907
128 5 2.9775 10.0796 2.46974
142 6 4.40973 9.10507 0.201254
161 7 0.3368 9.39775 3.09248
100 4 4.56936 11.8127 1.0442
107 4 6.40663 10.0586 1.5885
129 5 8.28807 11.4303 3.16125
166 7 7.39084 12.0295 0.523121
115 4 11.3092 11.5272 2.31845
121 5 9.36017 10.3896 0.761059
141 6 0.202886 10.8472 0.805121
148 6 9.59649 0.301684 1.50866
117 4 3.23973 2.92458 6.39224
126 5 2.69712 4.43358 4.42307
130 5 2.24485 0.743862 5.30768
177 7 0.390298 2.68868 5.30873
131 5 5.2113 1.2491 5.27877
134 5 7.43542 2.52236 6.16639
171 7 8.55325 1.28124 3.95847
132 5 11.9622 4.29324 3.7578
139 6 9.30088 0.448781 6.97276
175 7 12.3923 0.119055 5.77692
178 7 10.5505 2.50954 5.29866
136 5 3.40221 6.40285 6.21488
152 6 0.85234 5.55995 5.77221
153 6 0.967911 8.61422 6.19917
168 7 2.37696 7.56478 3.94215
110 4 6.68557 6.34014 3.70887
112 4 5.27174 4.46655 5.40545
133 5 5.84332 7.39271 5.94989
156 6 7.39512 5.21682 6.35243
172 7 8.63551 4.34143 4.45406
118 4 10.8091 8.62557 6.33837
137 5 10.817 5.32286 5.80673
150 6 12.3673 7.25636 4.2904
173 7 8.67367 7.28117 5.20461
99 4 0.982755 11.8497 6.64115
111 4 2.10855 10.8073 4.81683
113 4 0.690437 12.4104 3.52677
164 7 3.94282 9.13499 5.51749
176 7 4.13072 12.1281 6.39711
114 4 5.17134 11.2384 4.13202
155 6 7.18745 12.4626 5.56462
162 7 5.90247 10.4732 6.75923
170 7 7.08718 9.42874 4.52876
116 4 10.3095 12.38 4.74472
154 6 10.1396 9.48662 3.87677
157 6 12.295 10.4934 5.15532
174 7 9.00535 10.5938 6.0826
21 1 13.0521 2.31141 12.3869
32 2 3.25745 0.415814 7.88117
61 3 1.04035 3.80606 9.2123
68 3 2.86372 1.49954 9.0195
79 3 0.539573 0.963711 9.51462
140 6 1.05219 1.56838 7.67006
23 1 7.98199 2.0835 9.6558
39 2 5.18355 3.84987 7.7974
69 3 3.84314 3.78032 8.6352
76 3 6.3807 2.91987 8.36213
78 3 7.62742 0.368085 9.34078
119 5 6.18022 13.1335 7.96535
30 2 11.7363 1.7759 7.15115
48 3 9.60588 3.68495 9.51725
67 3 12.0127 2.24034 8.68539
89 3 10.1106 0.191094 8.87796
160 7 9.58549 3.48174 7.46377
10 1 2.61705 4.74426 9.44554
12 1 2.68731 7.84034 10.7527
38 2 0.269626 4.88346 10.0327
44 3 2.65152 6.11285 8.18754
54 3 0.88466 8.13836 8.2995
75 3 0.994676 6.27137 10.1902
20 1 4.57429 7.34469 8.59999
42 2 6.76983 6.09139 9.56739
45 3 8.49605 8.37975 9.22308
57 3 5.67177 5.03006 9.09779
82 3 6.23369 7.53532 9.90411
94 3 7.99819 5.82641 8.92881
158 6 7.63874 8.60169 7.49241
5 1 11.325 7.53794 11.0764
18 1 12.3606 3.68417 7.96563
27 1 10.0389 6.1971 8.73442
77 3 11.174 7.77283 8.8283
92 3 12.287 5.35088 8.91094
135 5 12.4918 6.89286 7.26075
14 1 12.6709 9.4894 8.83867
19 1 0.574579 12.2177 9.57388
56 3 3.33 8.67676 9.21949
70 3 12.6581 9.0742 10.6286
96 3 0.709148 10.7563 8.582
138 5 2.83845 10.0842 7.67834
7 1 4.96395 10.8756 9.35521
31 2 7.9281 11.3294 7.93451
74 3 5.7561 9.95007 10.4149
81 3 5.19929 12.747 10.0603
98 3 8.20405 11.1944 9.41492
15 1 9.96345 9.18611 9.36284
88 3 11.2757 10.7219 9.36828
146 6 11.1416 11.3971 7.39682
9 1 11.6638 0.739434 9.45052
36 2 2.47574 3.08045 12.3052
59 3 1.10623 3.40425 12.7323
71 3 3.36241 3.1703 13.5579
86 3 2.48898 1.54169 11.7021
93 3 3.28642 3.89625 11.341
8 1 3.71314 1.38083 10.5654
26 1 5.01973 4.09659 10.2121
41 2 6.05259 1.92769 11.821
55 3 5.35229 0.611955 12.4647
63 3 5.17612 2.29649 10.4907
73 3 6.02234 3.11977 12.7776
1 1 9.15569 12.5007 9.94826
22 1 10.8561 3.26467 10.8837
40 2 11.4915 0.0917676 12.1051
47 3 11.5045 1.68627 11.3427
53 3 12.0833 13.0778 13.4365
95 3 7.44793 1.8229 11.5059
17 1 1.1306 6.06774 12.2412
37 2 4.22874 6.78449 12.1218
51 3 4.08298 6.54574 10.4342
52 3 0.108225 7.60855 12.5792
58 3 12.6081 4.28869 11.1752
83 3 2.69803 6.88027 12.3963
11 1 7.06461 5.64744 12.8703
34 2 5.98692 8.5693 11.1193
43 3 6.98357 5.51464 10.9813
46 3 5.21835 5.89453 12.899
62 3 4.8496 8.28414 12.2949
85 3 7.33962 8.70404 11.9074
24 1 8.88226 5.10866 10.9686
28 1 8.91992 7.70708 11.5693
33 2 9.9507 4.92295 13.1639
65 3 9.64507 3.72213 12.2509
72 3 11.3554 5.36527 13.4173
80 3 9.93466 6.38797 10.5747
90 3 8.70841 6.07146 13.1369
2 1 0.112999 11.8868 12.8029
13 1 3.64221 0.84085 13.1036
29 2 2.75076 11.0061 11.3848
35 2 0.146325 9.04532 11.9749
50 3 3.97539 11.3203 12.1711
60 3 2.83942 10.8383 9.93537
87 3 1.55452 11.9761 11.7701
91 3 1.8022 9.45891 11.6005
3 1 5.72138 11.9224 11.6634
6 1 7.74407 10.1432 10.7965
16 1 8.28717 0.18769 12.0308
97 3 7.41958 11.6024 11.6798
25 1 11.5083 10.594 11.2378
49 3 10.1273 8.88425 11.1527
64 3 12.4724 10.127 12.708
66 3 12.2203 12.39 10.974
84 3 9.96533 12.9266 11.9651
4 1 4.59819 4.15373 13.139
ITEM: TIMESTEP
800
ITEM: NUMBER OF ATOMS
178
ITEM: BOX BOUNDS pp pp pp
0.0000000000000000e+00 1.3168533823700001e+01
0.0000000000000000e+00 1.3168533823700001e+01
0.0000000000000000e+00 3.5381309593600001e+01
ITEM: ATOMS id type x y z
108 4 3.30827 13.0527 3.40138
143 6 3.64637 1.18916 0.923022
149 6 1.17897 2.11151 2.79808
163 7 3.97756 2.55989 3.43044
104 4 7.60737 2.09971 1.36523
109 4 6.87976 3.33642 3.40776
147 6 6.17904 0.222051 2.68891
159 7 5.49155 3.1082 1.22751
127 5 9.91722 2.95878 2.26492
144 6 12.3225 3.13179 1.27114
151 6 11.5699 1.20296 3.44118
167 7 12.6092 0.542192 1.01741
101 4 2.79029 3.7448 1.31885
105 4 1.02182 5.18585 2.22015
120 5 2.21576 7.12167 1.47914
122 5 4.52923 5.38565 2.70012
102 4 6.18232 6.95026 1.14401
123 5 8.22857 5.08866 1.60766
145 6 8.35394 7.98611 2.08729
165 7 4.97304 8.21031 3.02931
103 4 9.46973 7.05932 0.135567
124 5 12.3737 6.70068 1.54866
125 5 11.0667 8.50293 1.25563
169 7 10.2627 6.21636 3.1732
106 4 1.73119 12.5786 1.1309
128 5 2.7936 10.1938 2.40935
142 6 4.18251 8.9881 0.57107
161 7 0.291152 9.44503 2.96028
100 4 4.5832 11.6964 0.889826
107 4 6.50195 10.0266 1.45848
129 5 8.18613 11.3782 3.01747
166 7 7.40395 12.172 0.378035
115 4 11.4349 11.5637 2.36547
121 5 9.37547 10.1107 0.784784
141 6 13.1303 10.5634 0.633381
148 6 9.55828 13.1149 1.37496
117 4 3.161 3.39345 6.2287
126 5 2.23319 4.53136 4.20829
130 5 2.21466 0.855814 5.37364
177 7 0.212799 2.63143 5.54483
131 5 5.47703 1.33617 5.22129
134 5 7.53148 2.43987 6.29331
171 7 8.54518 1.17737 3.86497
132 5 12.1569 4.33093 3.79375
139 6 9.57293 0.441198 6.78527
175 7 12.5045 0.26484 6.07042
178 7 10.2908 2.44711 5.32112
136 5 3.07207 6.36651 6.49426
152 6 0.600531 5.66819 5.60354
153 6 0.983432 8.68418 6.24701
168 7 2.33073 7.56277 4.21981
110 4 7.1626 6.27524 3.80046
112 4 5.31473 4.48192 5.17014
133 5 5.61748 7.19796 5.80179
156 6 7.74087 5.29789 6.65953
172 7 8.95333 4.35113 4.45251
118 4 10.7604 8.47212 6.45451
137 5 10.6005 5.66726 6.05282
150 6 12.3013 7.58729 4.29969
173 7 8.82939 7.53247 5.35776
99 4 1.0744 11.6547 7.01021
111 4 2.15095 10.9019 4.92839
113 4 0.486428 12.3008 3.34602
164 7 4.08339 9.23056 5.32167
176 7 4.15975 12.1532 6.14813
114 4 5.13502 11.2238 3.61717
155 6 7.19033 12.4784 5.4304
162 7 6.05186 10.2833 6.79688
170 7 7.19538 9.3475 4.42817
116 4 10.148 12.3219 4.47265
154 6 10.215 9.27743 3.67259
157 6 12.2955 10.4643 5.17092
174 7 9.15154 10.4663 6.08294
21 1 12.8211 2.82675 11.9665
32 2 3.37658 0.277548 7.89752
61 3 0.800205 3.54312 9.0169
68 3 3.14567 1.07483 9.16318
79 3 0.489576 0.897649 9.61041
140 6 1.2104 1.55951 7.77848
23 1 7.9055 2.14298 9.61373
39 2 5.31435 3.46735 7.7514
69 3 3.95604 3.64588 8.60227
76 3 6.6335 3.38453 8.60887
78 3 7.6845 0.381885 8.88714
119 5 5.77685 0.0500045 7.73334
30 2 11.648 2.13742 7.32657
48 3 8.90028 3.43058 9.66013
67 3 11.3784 2.8132 8.64615
89 3 9.90421 0.969391 8.83376
160 7 9.58647 3.65217 7.47233
10 1 2.64279 4.23582 9.52582
12 1 2.09612 7.07008 9.38102
38 2 0.14217 4.60162 9.79031
44 3 3.05029 5.8131 8.41181
54 3 0.593589 7.99345 8.4298
75 3 1.11784 5.59799 10.3265
20 1 4.45492 6.95554 8.88161
42 2 6.88726 6.17697 9.39244
45 3 8.63619 8.20634 9.21847
57 3 5.67456 5.78963 8.38499
82 3 6.0123 7.6858 9.65392
94 3 8.36381 5.84613 8.72782
158 6 7.79316 8.58248 7.45391
5 1 11.2879 7.64659 11.0526
18 1 12.6244 4.05823 7.38148
27 1 9.91109 6.63217 8.51979
77 3 11.0254 7.81711 9.1307
92 3 12.3152 5.35433 8.92463
135 5 12.3851 6.87088 7.33816
14 1 12.4442 9.2788 8.67936
19 1 0.158036 11.9996 9.86509
56 3 3.12884 8.32241 8.55862
70 3 12.8668 9.41455 10.5668
96 3 0.951723 10.7348 8.61853
138 5 3.10216 10.2836 7.64239
7 1 5.29481 10.8798 9.21875
31 2 8.19183 11.3553 8.03277
74 3 5.92124 10.0566 10.8056
81 3 5.29201 12.4835 9.78504
98 3 8.47488 11.2242 9.63773
15 1 9.93 9.43293 9.24419
88 3 11.0289 10.888 9.28005
146 6 11.2195 11.6295 7.37957
9 1 11.8938 0.920624 9.12662
36 2 2.38767 3.00985 12.5599
59 3 1.11252 3.81662 13.0957
71 3 3.51299 2.68655 13.599
86 3 2.07672 1.67031 11.8973
93 3 3.10878 3.95698 11.4895
8 1 3.84683 0.870864 10.7807
26 1 4.89159 3.67089 10.2331
41 2 6.07252 2.22012 12.1816
55 3 5.71176 1.04183 13.1086
63 3 5.19363 2.066 10.9968
73 3 6.00817 3.61556 12.7409
1 1 9.08238 12.7988 9.97843
22 1 10.4448 3.11436 10.4912
40 2 11.4301 0.59566 11.7062
47 3 11.6699 1.71889 10.8788
53 3 12.1589 0.636382 13.0693
95 3 7.65615 2.0209 11.6789
17 1 0.754684 5.905 12.6994
37 2 3.74365 6.85334 12.0825
51 3 3.73143 6.52183 10.6094
52 3 13.0314 7.68814 12.0897
58 3 12.4012 4.21996 10.8987
83 3 2.46311 6.81752 12.7102
11 1 6.70369 5.6265 12.6494
34 2 5.87533 8.46868 10.993
43 3 7.01069 5.3425 10.7648
46 3 4.5573 5.92677 13.1254
62 3 4.74647 8.02414 11.8459
85 3 7.29102 8.41494 11.7008
24 1 8.65343 4.36298 11.1369
28 1 8.75213 7.47569 10.9234
33 2 9.91479 5.04159 13.2276
65 3 10.0883 3.68282 12.1852
72 3 11.1027 5.50391 13.9272
80 3 10.0029 6.16872 11.195
90 3 8.41555 5.26977 13.2422
2 1 0.152241 12.3004 12.6441
13 1 4.20902 0.880182 13.8522
29 2 2.70741 10.8371 11.163
35 2 0.523193 9.00622 11.8931
50 3 3.82433 11.0847 12.279
60 3 3.22568 10.9155 9.70495
87 3 1.67802 12.0573 11.4053
91 3 2.10063 9.27605 11.3739
3 1 5.43585 11.791 11.7392
6 1 7.8098 10.3468 11.317
16 1 8.23272 0.422004 12.2848
97 3 7.38582 12.1748 11.9062
25 1 11.3764 10.6836 11.2319
49 3 9.97155 9.12241 11.249
64 3 0.0726174 10.2203 12.6988
66 3 11.9383 12.2947 11.2177
84 3 9.86679 0.414159 11.7442
4 1 4.29302 4.15848 12.9414
ITEM: TIMESTEP
900
ITEM: NUMBER OF ATOMS
178
ITEM: BOX BOUNDS pp pp pp
0.0000000000000000e+00 1.3168533823700001e+01
0.0000000000000000e+00 1.3168533823700001e+01
0.0000000000000000e+00 3.5381309593600001e+01
ITEM: ATOMS id type x y z
108 4 3.18246 12.9727 3.10579
143 6 3.42688 1.41931 0.730346
149 6 1.23743 1.94688 2.58447
163 7 3.95783 2.50558 3.36683
104 4 7.69727 1.73891 0.88701
109 4 6.72843 3.33548 3.33787
147 6 5.93437 0.500891 2.37408
159 7 5.4156 3.07 1.2855
127 5 9.82747 2.91651 2.40177
144 6 12.2298 3.07536 1.00306
151 6 11.7521 1.33269 3.47933
167 7 12.5284 0.201182 1.15842
101 4 2.78511 3.88629 1.32942
105 4 1.10656 5.09296 1.97558
120 5 2.38044 7.25614 1.74869
122 5 4.41558 5.43166 2.97685
102 4 6.16861 6.90773 1.22486
123 5 8.38981 4.96534 1.5861
145 6 8.37832 7.93191 2.09096
165 7 4.86711 8.07423 3.15184
103 4 9.56992 6.92232 0.221237
124 5 12.5551 6.81606 1.63394
125 5 11.2449 8.84854 0.992412
169 7 10.2552 6.0919 3.01635
106 4 1.93566 12.4715 0.961396
128 5 2.76082 10.2724 2.4437
142 6 4.10518 8.70911 0.653329
161 7 0.232569 9.37267 3.08485
100 4 4.28202 11.9158 1.00671
107 4 6.29616 9.94598 1.36378
129 5 8.1737 11.3862 2.99789
166 7 7.36792 12.3262 0.520683
115 4 11.2695 11.4281 2.22982
121 5 9.10787 10.4238 0.595255
141 6 0.109584 10.7976 0.753665
148 6 9.64346 0.249589 1.51097
117 4 2.8365 3.36974 6.53011
126 5 2.33972 4.33839 4.10833
130 5 2.15888 0.778636 5.24311
177 7 0.37098 2.91341 5.47734
131 5 5.12287 1.32102 5.25453
134 5 7.55952 2.61103 6.06834
171 7 8.42572 1.07016 4.05719
132 5 11.9848 4.12371 3.5637
139 6 9.51546 0.35059 6.874
175 7 12.4722 0.360875 6.02193
178 7 10.5414 2.37392 5.55697
136 5 3.12391 6.29391 6.28303
152 6 0.467929 5.70879 5.56329
153 6 1.23254 8.7448 6.30151
168 7 2.30037 7.44964 4.14471
110 4 6.966 6.02403 3.68322
112 4 5.28555 4.35136 5.5223
133 5 5.72637 7.27994 5.90196
156 6 7.73847 5.58414 6.60217
172 7 9.07215 4.19351 4.51813
118 4 11.0178 8.94981 6.54871
137 5 10.9225 5.46436 6.09453
150 6 12.1961 7.58861 4.59683
173 7 9.2198 7.43863 5.24541
99 4 1.25801 11.8755 6.77128
111 4 2.03154 10.919 4.87951
113 4 0.306459 12.358 3.40235
164 7 3.95594 9.2233 5.3756
176 7 4.19559 12.106 5.79783
114 4 5.26149 10.9615 3.61474
155 6 7.14115 12.2908 5.35484
162 7 6.06881 10.261 6.47151
170 7 7.06261 9.03493 4.36639
116 4 10.4838 12.4617 4.46816
154 6 10.2937 9.516 3.69841
157 6 12.3426 10.6566 5.50723
174 7 9.08841 10.6217 5.96079
21 1 12.62 2.73703 12.9106
32 2 3.2604 0.56883 7.45507
61 3 1.09183 3.46477 9.11474
68 3 2.87689 0.433146 9.07098
79 3 0.255783 0.823707 9.61677
140 6 0.900274 1.58471 7.8729
23 1 8.18648 1.6644 9.87157
39 2 5.11054 3.39227 7.82989
69 3 3.86686 3.34883 8.8171
76 3 6.32539 3.26456 8.87867
78 3 7.77163 0.301449 8.74566
119 5 5.87237 13.0119 7.62856
30 2 11.9576 2.48714 7.26399
48 3 9.32566 3.07619 9.63372
67 3 11.8407 2.99805 8.72293
89 3 9.98605 0.416943 8.93192
160 7 9.52586 3.65016 7.58106
10 1 2.409 4.48871 9.64581
12 1 1.86705 7.17673 10.1008
38 2 13.1455 4.72176 10.3028
44 3 2.33261 5.73215 8.25934
54 3 1.01572 8.01864 8.48962
75 3 1.14067 5.51921 10.7626
20 1 4.20024 6.84291 9.26618
42 2 6.37056 6.096 9.22148
45 3 8.9086 8.31715 9.29053
57 3 5.1795 5.90169 8.29701
82 3 5.94177 7.82363 9.78424
94 3 7.91484 5.72241 9.62072
158 6 7.86006 8.51045 7.37297
5 1 11.9863 7.25979 11.0166
18 1 13.1172 4.15333 7.95098
27 1 10.1192 6.97639 9.2437
77 3 11.4974 8.29158 9.1747
92 3 12.1814 5.41334 9.29474
135 5 12.6362 7.11692 7.63463
14 1 0.110676 9.47174 8.98992
19 1 0.276699 11.9445 10.0536
56 3 3.25551 8.09567 8.65822
70 3 13.0417 9.89626 10.5624
96 3 1.30795 10.934 8.46404
138 5 3.30105 10.1012 7.67291
7 1 5.53517 11.0174 9.39425
31 2 8.07719 11.1291 7.7722
74 3 6.35227 10.0288 10.8703
81 3 5.50643 12.7421 9.7009
98 3 8.41298 10.9584 9.23071
15 1 10.0742 9.75446 9.28967
88 3 10.9385 11.2369 9.66238
146 6 11.2229 11.561 7.51241
9 1 11.7379 0.864458 9.1583
36 2 2.10606 2.91439 12.4566
59 3 1.16653 3.95316 12.7551
71 3 2.95602 2.62886 13.7361
86 3 1.64838 1.67577 11.7722
93 3 3.08399 3.5767 11.2737
8 1 3.76702 1.09018 10.4525
26 1 4.79491 3.69573 10.6764
41 2 6.32562 2.26905 12.2772
55 3 6.15199 1.2537 13.4343
63 3 5.27353 1.92993 11.2401
73 3 5.45272 3.6745 12.8518
1 1 8.92896 12.6282 10.0044
22 1 10.808 3.34812 10.2972
40 2 11.4998 0.313908 11.997
47 3 11.3581 1.4952 11.0287
53 3 12.2517 0.894205 13.2095
95 3 7.71362 2.25508 11.7359
17 1 1.31338 5.88381 12.8206
37 2 3.94875 7.0511 12.2574
51 3 3.4814 6.49028 10.8389
52 3 0.479097 7.70995 11.8905
58 3 12.4687 3.66628 11.0486
83 3 2.78873 6.91242 13.2865
11 1 6.74285 6.31188 12.8141
34 2 5.92023 8.50246 11.0526
43 3 5.53087 5.17699 10.4058
46 3 4.91467 6.24608 13.0865
62 3 4.55687 8.437 11.8045
85 3 6.92817 7.8181 12.1942
24 1 8.07746 4.10322 10.7128
28 1 8.93716 7.98697 11.6483
33 2 9.61763 5.34149 12.5426
65 3 9.78981 4.14178 11.5294
72 3 10.7214 5.42033 13.555
80 3 10.163 6.70728 11.4478
90 3 8.13996 5.37048 12.4898
2 1 0.798468 12.3189 12.5005
13 1 4.85582 2.29227 14.1326
29 2 3.00361 10.8488 11.046
35 2 0.806441 9.37338 11.8496
50 3 4.0598 11.442 11.9862
60 3 3.89416 10.3446 9.59671
87 3 1.92019 11.9103 11.0184
91 3 2.2356 9.31177 11.5108
3 1 5.91148 11.6992 11.9639
6 1 8.09578 10.4563 11.2688
16 1 8.48418 0.330376 12.6326
97 3 7.66127 11.8353 12.3115
25 1 11.4717 10.8815 11.3102
49 3 9.67094 9.81063 11.4765
64 3 0.281806 10.1563 13.0265
66 3 12.4072 12.2919 11.5529
84 3 10.0979 12.8574 12.1747
4 1 3.91234 4.55034 12.8321
ITEM: TIMESTEP
1000
ITEM: NUMBER OF ATOMS
178
ITEM: BOX BOUNDS pp pp pp
0.0000000000000000e+00 1.3168533823700001e+01
0.0000000000000000e+00 1.3168533823700001e+01
0.0000000000000000e+00 3.5381309593600001e+01
ITEM: ATOMS id type x y z
143 6 3.38869 1.52271 0.504001
149 6 1.23079 1.98159 2.40891
163 7 3.9009 2.48409 3.24616
101 4 2.91871 3.96671 1.21367
104 4 7.69794 2.07055 1.16541
109 4 6.83727 3.11962 3.47393
147 6 5.82807 0.68181 2.58363
159 7 5.41933 3.20555 1.06387
127 5 9.7837 3.10756 2.27671
144 6 12.3035 2.98765 0.919771
151 6 11.8689 1.41757 3.41317
167 7 12.5065 0.408192 0.962682
148 6 9.77135 0.409658 1.64337
105 4 1.06602 4.86647 1.96987
120 5 2.5086 6.93289 1.52814
142 6 4.29281 8.68197 0.363186
122 5 4.52248 5.22268 2.85689
102 4 6.15174 6.89935 1.08797
123 5 7.63472 4.91079 1.52204
145 6 8.26625 8.21037 2.18233
165 7 4.79447 7.95959 3.19118
103 4 9.9652 6.78907 0.625256
124 5 12.7634 7.10433 1.98536
169 7 10.0579 6.1143 2.91029
108 4 3.50313 12.9154 3.11624
106 4 1.97005 12.7389 0.974714
128 5 2.96511 9.90644 2.3574
161 7 0.0386894 9.38941 3.30095
141 6 0.512381 10.7231 1.03114
113 4 0.700183 12.2907 3.39523
100 4 4.72763 11.66 0.784426
107 4 6.36569 9.68087 1.4738
129 5 8.20233 11.4542 3.07762
166 7 7.23068 12.3605 0.763834
125 5 10.9302 8.81633 1.40698
115 4 11.3158 11.5668 2.34116
121 5 8.89093 10.2639 0.61429
117 4 3.01401 2.91699 6.47116
126 5 2.29504 4.27547 4.27272
130 5 2.04211 0.976566 5.21296
177 7 0.132353 2.94198 5.45135
131 5 5.2563 1.49848 5.40315
134 5 7.36101 2.45859 6.39126
171 7 8.5251 1.29671 3.98374
112 4 5.17887 4.31103 5.36361
139 6 8.94777 0.336017 6.95415
175 7 12.4482 0.267163 5.99659
178 7 10.4363 2.36381 5.33171
172 7 8.89847 4.29536 4.58418
136 5 3.4055 6.12671 6.47989
152 6 0.753795 5.67341 5.73706
153 6 1.13577 8.57029 6.29044
168 7 2.08051 7.31669 3.9201
110 4 7.11814 6.28635 3.90274
133 5 5.70753 7.17417 6.19228
156 6 7.86896 5.48882 6.38157
132 5 12.1672 4.54084 3.53859
118 4 10.7623 8.77182 6.88539
137 5 10.939 5.06264 6.061
150 6 12.0825 7.60372 4.99385
173 7 9.31853 7.34424 5.12903
99 4 1.0709 11.8852 6.8708
111 4 2.15047 10.7535 4.7164
164 7 3.9547 8.92418 5.30947
176 7 4.20145 12.1032 5.99623
114 4 5.14217 11.0168 3.6163
155 6 6.98375 12.5487 5.23611
162 7 6.07209 10.1648 6.36804
170 7 7.28289 9.07482 4.3391
116 4 10.2313 12.518 4.71668
154 6 10.2874 9.53376 3.7815
157 6 12.4221 10.6406 5.45193
174 7 9.16675 10.5871 5.8752
32 2 3.39983 0.439975 7.81322
61 3 1.12358 3.7407 9.08047
68 3 3.19188 1.14866 9.14603
79 3 0.519104 0.76425 9.55155
140 6 1.00632 1.48259 7.72729
69 3 4.07735 3.69116 8.24836
23 1 7.52592 1.88984 9.41777
39 2 5.34823 3.16895 7.58493
76 3 6.13832 2.70007 8.81038
78 3 7.77966 0.212252 8.7625
26 1 4.88676 3.10327 10.2441
30 2 11.717 2.16469 7.33535
48 3 9.28035 2.5913 9.10904
67 3 11.7976 2.61338 8.91852
89 3 10.3349 0.126743 8.92353
160 7 9.33241 3.6654 7.47457
18 1 13.0448 4.29179 7.97409
9 1 11.8311 1.02248 9.45504
22 1 10.9865 2.91632 10.4303
10 1 2.637 4.66632 9.7391
12 1 1.91041 7.67503 10.1086
38 2 0.285698 4.70473 10.2056
44 3 2.8537 5.93413 8.55816
54 3 0.841918 8.10665 8.71872
20 1 4.29548 7.02211 9.37734
56 3 3.67362 8.41291 8.20385
42 2 6.33343 5.91174 9.40652
45 3 8.34093 7.94144 9.10935
57 3 5.45677 5.95105 8.23827
82 3 5.70462 7.48389 10.1562
94 3 7.70671 5.38812 9.45733
158 6 8.03774 8.52028 7.13468
43 3 5.39591 5.00729 10.3574
27 1 9.72393 6.58369 8.52455
77 3 11.3011 8.3582 9.08111
92 3 12.5209 5.46246 9.19767
135 5 12.5803 7.05984 7.53583
19 1 0.788334 11.9945 10.1652
96 3 1.27531 10.9507 8.81155
138 5 3.26181 10.4011 7.50843
60 3 3.72356 10.4949 9.96921
119 5 5.98705 12.9259 7.78789
7 1 5.96071 10.2597 8.97655
31 2 8.04985 10.8598 7.77544
81 3 5.55681 12.2418 9.50481
98 3 8.02807 10.865 9.31866
14 1 12.9045 9.86286 9.09174
15 1 9.93726 9.38548 9.53363
88 3 10.8957 11.1593 9.51793
146 6 10.9709 11.6913 7.60231
1 1 9.75579 12.6095 10.5299
36 2 2.5785 2.98259 12.7586
59 3 1.21448 3.58311 13.452
71 3 3.47826 2.65396 13.8952
86 3 1.92058 1.69843 11.9946
93 3 3.12753 3.75313 11.4167
8 1 3.29587 0.926519 10.8915
41 2 6.41459 1.89594 12.0868
55 3 6.44211 0.955891 13.5245
63 3 5.2052 1.06326 11.3667
73 3 5.94083 3.24562 12.3098
95 3 7.68479 1.74661 11.2551
24 1 8.18457 4.29132 10.8189
13 1 5.27211 1.99288 14.0471
16 1 8.06213 0.579749 12.6
21 1 12.9133 2.93986 13.0033
40 2 11.3108 0.359597 12.4147
47 3 10.5343 0.996881 11.0874
53 3 11.5797 1.49127 13.3905
58 3 12.7186 3.85083 11.1295
75 3 1.15693 5.72404 10.9256
17 1 1.15254 6.37982 12.9078
37 2 3.79772 7.26903 12.5148
51 3 3.40976 6.89093 11.0605
52 3 0.105762 8.01204 11.9007
83 3 2.48217 7.39341 13.2636
11 1 6.88601 6.90133 13.1601
34 2 5.72673 8.49519 11.1742
46 3 4.92898 6.4344 13.0636
62 3 4.53368 8.66956 12.3632
85 3 7.13992 8.31408 12.0415
28 1 8.62426 7.73129 11.1799
90 3 8.39195 5.96384 12.0096
4 1 4.8278 4.76398 12.1596
5 1 11.8773 7.38806 10.9515
33 2 10.1554 5.67335 11.8918
65 3 10.0145 4.47093 10.8816
72 3 11.0007 5.71082 13.0745
80 3 10.422 6.71011 10.6303
2 1 1.25169 13.1608 12.7164
29 2 3.27111 10.9228 11.2183
35 2 0.804734 9.46085 11.9381
50 3 4.36169 11.5232 12.2027
87 3 2.29457 12.2414 11.1083
91 3 2.31589 9.46691 11.2532
64 3 0.98104 10.2063 13.1796
74 3 6.1028 9.84542 10.6532
3 1 5.73403 12.5376 11.4953
6 1 7.77554 10.5076 11.2212
97 3 7.52959 12.4188 11.5453
70 3 12.7464 10.3242 11.0801
25 1 11.0992 10.2662 11.7403
49 3 9.46734 9.56054 11.3842
66 3 12.8225 13.0197 11.8158
84 3 10.5473 12.1094 12.6117
ITEM: TIMESTEP
1100
ITEM: NUMBER OF ATOMS
178
ITEM: BOX BOUNDS pp pp pp
0.0000000000000000e+00 1.3168533823700001e+01
0.0000000000000000e+00 1.3168533823700001e+01
0.0000000000000000e+00 3.5381309593600001e+01
ITEM: ATOMS id type x y z
143 6 3.85261 1.29908 0.573463
149 6 1.32498 2.14856 2.51713
163 7 3.96186 2.51351 3.12703
101 4 2.98264 3.88544 0.887194
104 4 7.79869 2.26204 1.49361
109 4 6.36821 3.44264 3.53932
147 6 6.0056 0.515415 2.64457
159 7 5.60538 3.07736 0.993954
127 5 10.1271 3.37141 2.17858
144 6 12.3359 3.15865 1.05394
151 6 11.7704 1.36273 3.31155
167 7 12.8524 0.299676 0.944813
148 6 9.72553 0.215317 1.42768
105 4 1.20569 5.0226 1.94254
120 5 2.89013 6.81388 1.29523
142 6 4.30756 8.73608 0.122554
122 5 4.48434 5.27193 2.65399
102 4 5.80759 7.00143 0.802633
123 5 7.82484 5.06423 1.74539
145 6 8.38546 7.78569 2.04565
165 7 4.89889 8.00312 2.97468
103 4 10.0235 6.61065 0.580884
124 5 12.8709 6.94067 2.1612
169 7 10.0791 6.13184 3.05148
108 4 3.4148 12.7571 3.26622
106 4 2.20384 12.6774 1.11951
128 5 2.91279 9.98086 2.2772
161 7 0.275961 9.54639 3.50525
141 6 0.520952 10.686 1.15889
113 4 0.418951 12.4017 3.46537
100 4 4.61671 11.7525 1.05562
107 4 6.3367 9.89779 1.5862
129 5 8.17106 11.4421 3.01235
166 7 7.4049 12.564 0.896078
125 5 11.1277 8.75732 1.32293
115 4 11.4669 11.5984 2.53735
121 5 9.47491 10.5168 1.13338
117 4 3.07702 3.25096 6.08322
126 5 2.24565 4.39892 4.1976
130 5 1.95621 0.693285 5.11784
177 7 13.0984 2.73015 5.57386
131 5 4.88613 1.35039 5.15726
134 5 7.30449 2.52266 5.85873
171 7 8.47591 1.28689 3.73559
112 4 5.20073 4.68791 5.40788
139 6 9.00144 0.475721 6.86964
175 7 12.3832 0.255658 5.89911
178 7 10.2463 2.29996 5.55906
172 7 8.76039 4.30941 4.27432
136 5 3.14465 6.14698 6.489
152 6 0.808119 5.67721 5.94988
153 6 1.22628 8.6016 6.24238
168 7 1.92639 7.26958 3.86305
110 4 6.86999 6.35012 3.90941
133 5 5.87534 7.36056 6.13122
156 6 7.61952 5.29167 6.70334
132 5 12.3135 4.41278 3.66656
118 4 10.9377 8.78574 6.6363
137 5 10.8858 5.27008 6.01643
150 6 12.1036 7.44121 4.73142
173 7 9.11978 7.32052 5.29248
99 4 1.17115 11.7382 6.7354
111 4 2.21553 10.8389 4.80799
164 7 3.94268 8.85993 5.37047
176 7 4.06399 12.1118 6.11808
114 4 5.11759 10.8915 3.69647
155 6 7.00046 12.4448 5.28404
162 7 5.83476 10.349 6.56882
170 7 7.11101 9.29652 4.56101
116 4 10.1284 12.5723 4.31189
154 6 10.2419 9.50281 3.81437
157 6 12.1556 10.553 5.67161
174 7 8.9075 10.7227 6.01838
32 2 3.46607 0.955804 7.4936
61 3 0.919673 3.90672 9.42764
68 3 3.60646 1.26091 8.92698
79 3 0.865208 0.774444 9.46852
140 6 1.09078 1.31112 7.55193
69 3 4.15308 3.97623 8.50817
23 1 7.67127 1.74327 8.97897
39 2 5.34193 3.41518 7.56389
76 3 6.04304 2.65183 8.64961
78 3 7.92918 0.0199769 8.78825
26 1 4.3615 2.6099 10.0249
30 2 11.6097 1.39855 7.65111
48 3 9.11581 3.03829 9.29399
67 3 11.9534 2.18455 8.92913
89 3 10.4416 0.566791 8.71961
160 7 9.41028 3.45519 7.42685
18 1 12.305 3.99463 8.16107
9 1 12.2022 0.635292 9.77103
22 1 10.5884 2.81305 10.7231
10 1 2.69039 4.45175 9.59407
12 1 1.7479 7.24225 9.90929
38 2 0.158591 4.6683 10.7206
44 3 2.59485 5.97015 8.67979
54 3 0.66181 8.12401 8.43788
20 1 4.11589 7.23845 9.46102
56 3 3.31804 8.08658 7.90742
42 2 6.49395 5.9119 9.59148
45 3 8.53092 8.21301 9.08709
57 3 5.65603 6.64296 8.47776
82 3 6.88987 7.11123 10.5846
94 3 7.93665 5.5552 9.16042
158 6 7.91258 8.51315 7.33955
43 3 5.68649 5.10956 10.5757
27 1 9.44047 6.39588 8.55954
77 3 11.8473 8.18543 9.64889
92 3 12.1135 5.50087 9.71564
135 5 12.3604 6.7223 7.73793
19 1 0.454123 12.0591 10.235
96 3 0.797048 11.1781 8.69156
138 5 2.96764 10.0991 7.4958
60 3 3.38721 10.8767 9.61357
119 5 5.91534 0.0920596 7.57708
7 1 5.60071 10.8782 9.16226
31 2 7.60421 11.2402 7.97868
81 3 5.64315 12.6592 9.65291
98 3 7.97274 10.6237 9.30817
14 1 12.6482 9.9742 8.68029
15 1 10.1302 9.15815 9.45606
88 3 10.9665 11.3516 9.31425
146 6 10.8214 11.9265 7.36771
1 1 8.87373 12.1741 10.0497
36 2 2.55795 2.94445 12.7323
59 3 1.40871 3.68107 12.9038
71 3 3.94026 3.21387 13.4637
86 3 2.34164 1.44325 12.5245
93 3 3.04742 3.51038 11.1209
8 1 2.29346 0.579996 10.2902
41 2 6.58473 1.93073 12.0683
55 3 6.86224 0.978968 13.2316
63 3 5.28022 1.41895 11.5468
73 3 6.62869 3.38495 12.5445
95 3 7.50592 1.86664 10.6838
24 1 8.13505 3.66891 10.7473
13 1 5.39312 2.53308 14.2745
16 1 9.18931 0.217091 12.1259
21 1 12.7975 3.2182 13.004
40 2 11.378 0.578755 12.3283
47 3 10.4883 0.688599 11.006
53 3 11.5652 1.756 13.1609
58 3 12.3731 3.26067 11.2539
75 3 1.04935 5.77306 11.3326
17 1 1.17297 6.99205 12.5918
37 2 4.01321 7.07192 12.5751
51 3 3.25456 6.95734 10.9798
52 3 0.0591493 8.36981 12.1037
83 3 2.94282 6.98227 13.5426
11 1 6.87652 6.14334 12.502
34 2 6.21371 8.38177 11.5353
46 3 5.23148 5.9526 12.8174
62 3 4.76812 8.44343 12.2638
85 3 7.57259 8.42217 12.3792
28 1 8.7215 7.81409 10.9288
90 3 8.76953 5.95097 12.5026
4 1 4.74708 4.36834 12.1949
5 1 11.6557 7.55155 11.2359
33 2 10.2 5.58122 11.8043
65 3 9.97421 4.12187 11.4141
72 3 11.5672 5.98996 12.1693
80 3 9.79471 6.60257 10.3731
2 1 1.22366 13.1124 12.7808
29 2 2.9179 10.915 11.1465
35 2 0.600506 9.8856 12.026
50 3 4.28919 11.0545 11.9489
87 3 2.02706 12.1575 11.2044
91 3 1.98563 9.58092 11.3333
64 3 0.769539 10.7186 13.2271
74 3 6.27002 9.7059 10.553
3 1 6.08119 11.4566 11.5005
6 1 8.013 10.0418 11.0092
97 3 8.12916 11.7723 11.6788
70 3 12.769 10.8033 11.1821
25 1 11.1087 10.6195 11.284
49 3 9.70758 9.34827 11.0592
66 3 12.7924 0.178331 11.7934
84 3 10.5406 12.5789 12.9884
ITEM: TIMESTEP
1200
ITEM: NUMBER OF ATOMS
178
ITEM: BOX BOUNDS pp pp pp
0.0000000000000000e+00 1.3168533823700001e+01
0.0000000000000000e+00 1.3168533823700001e+01
0.0000000000000000e+00 3.5381309593600001e+01
ITEM: ATOMS id type x y z
143 6 3.95549 1.00323 0.709755
149 6 1.3441 1.99068 2.52733
163 7 3.90689 2.63542 3.10268
101 4 2.93734 3.59235 1.00054
104 4 8.09482 2.34325 1.15042
109 4 6.57215 3.47039 3.39179
147 6 5.98257 0.575168 2.70552
159 7 5.69129 3.00987 0.95894
127 5 10.1902 3.30344 2.37097
144 6 12.7791 3.37907 0.987566
151 6 11.6888 1.33741 3.27207
167 7 12.8833 0.376929 1.29548
148 6 10.0977 0.275176 1.28512
105 4 1.58196 5.16032 1.36273
120 5 2.66772 7.37775 1.42414
142 6 4.30908 9.16346 0.268886
122 5 4.54873 5.34529 2.57705
102 4 6.02431 6.92028 1.04407
123 5 8.06007 5.16657 1.61113
145 6 8.16547 8.05449 2.03097
165 7 4.9561 8.14046 2.86082
103 4 10.1705 6.29081 0.764498
124 5 12.9313 6.61608 1.64339
169 7 10.2686 6.21997 3.2755
108 4 3.37519 13.0732 3.24157
106 4 2.13534 12.4099 1.12791
128 5 2.87986 10.031 2.36158
161 7 0.207872 9.35027 3.4871
141 6 0.2749 10.7168 0.972156
113 4 0.599694 12.3352 3.55574
100 4 4.79305 11.5676 1.05947
107 4 6.55258 9.80771 1.33526
129 5 7.90395 11.4445 3.09048
166 7 7.72795 12.7672 0.678203
125 5 11.3115 8.41656 1.67682
115 4 11.4839 11.4646 2.46124
121 5 9.43171 10.2551 1.03853
117 4 2.6524 3.39086 6.29118
126 5 1.97805 4.58915 3.92648
130 5 2.18702 1.0997 5.14451
177 7 0.211991 2.93698 5.63173
131 5 4.90698 1.37204 5.386
134 5 7.2132 2.38336 5.99003
171 7 8.57419 1.12452 3.60398
112 4 4.88382 4.60191 5.24254
139 6 9.15754 0.528831 6.52125
175 7 12.1956 0.251827 5.72648
178 7 10.5508 2.37539 5.15883
172 7 8.73577 4.15382 4.47587
136 5 2.99377 6.52217 6.46878
152 6 0.435809 5.46292 6.02766
153 6 0.875464 8.5315 6.23728
168 7 2.29661 7.31775 3.96461
110 4 6.85296 6.24856 3.76306
133 5 5.74964 7.34827 6.26131
156 6 7.40053 5.10197 6.47909
132 5 12.3046 4.27594 3.70353
118 4 10.5708 8.47786 6.42821
137 5 10.596 5.22089 6.06953
150 6 12.2339 7.3536 4.57336
173 7 8.66958 7.29005 5.43217
99 4 0.985668 11.8563 6.69027
111 4 2.17997 10.805 4.83307
164 7 3.87758 9.01267 5.12653
176 7 3.88617 12.0856 6.18656
114 4 5.07253 11.0928 3.95589
155 6 6.87793 12.5183 5.46413
162 7 5.86049 10.281 6.75768
170 7 7.02331 9.10335 4.42557
116 4 10.2364 12.2665 4.57701
154 6 10.0543 9.32442 3.87473
157 6 12.1297 10.5438 5.53927
174 7 8.91518 10.5482 6.08099
32 2 3.1141 0.220632 7.78964
61 3 0.955301 3.62103 9.36949
68 3 3.24994 0.792056 9.21504
79 3 0.725932 0.63433 9.65304
140 6 0.877716 1.23262 7.6829
69 3 4.40057 4.04324 8.39501
23 1 7.8143 2.26468 8.97812
39 2 5.51623 3.43009 7.60995
76 3 6.1305 2.33144 8.76994
78 3 7.8469 0.126998 8.54572
26 1 4.52223 2.59641 9.62463
30 2 11.6483 1.78404 7.26962
48 3 9.35172 3.12602 9.46946
67 3 11.7714 2.47053 8.58132
89 3 10.5816 0.275056 9.01807
160 7 9.33997 3.40757 7.37282
18 1 12.747 3.81515 8.00096
9 1 12.0067 1.01467 9.91815
22 1 10.6699 3.34287 10.8137
10 1 2.56288 4.23129 9.49607
12 1 2.14606 7.43981 9.77657
38 2 0.166356 4.78402 9.99022
44 3 2.34568 5.72303 8.43732
54 3 0.809749 8.38914 8.42737
20 1 4.02442 6.39005 9.03368
56 3 3.31121 7.98492 8.5339
42 2 6.69958 6.06545 9.7551
45 3 8.90199 8.23372 9.15581
57 3 5.72103 7.01296 9.15179
82 3 7.16096 6.87016 10.9735
94 3 7.8578 5.80031 8.70135
158 6 7.74941 8.9888 7.63203
43 3 5.94082 4.54058 10.0968
27 1 9.42541 6.46808 8.92444
77 3 11.7549 8.06172 9.53382
92 3 12.3527 5.24625 8.91788
135 5 12.3588 7.20205 7.49853
19 1 0.585923 11.902 9.76841
96 3 1.09556 10.7107 8.61136
138 5 3.10727 10.0693 7.61404
60 3 3.6835 10.0442 9.74371
119 5 5.76038 0.215322 7.75364
7 1 5.28053 10.9136 9.46812
31 2 7.88665 11.6311 8.13438
81 3 5.75766 12.7594 9.82115
98 3 8.68903 11.4242 9.51253
14 1 12.6152 9.63897 8.96521
15 1 10.0986 9.3457 9.60476
88 3 11.189 11.1766 9.5471
146 6 10.8984 11.8348 7.52143
1 1 9.13239 0.0830909 10.2423
36 2 2.69548 2.84263 12.6001
59 3 1.40402 3.61188 12.9092
71 3 3.91974 3.02378 13.432
86 3 2.71334 1.21903 12.3249
93 3 3.09303 3.30052 11.1266
8 1 2.85147 0.342128 10.8542
41 2 6.862 2.0772 12.1447
55 3 6.51776 1.41831 13.4898
63 3 5.52213 2.00864 11.2664
73 3 7.00147 3.73961 12.3444
95 3 7.97874 1.66662 11.1549
24 1 8.41749 4.25281 10.9224
13 1 4.4714 1.23209 12.8549
16 1 8.7415 12.6852 13.5503
21 1 12.7462 3.47774 12.8317
40 2 11.2587 0.580913 12.1731
47 3 10.4877 1.52466 11.2256
53 3 11.7842 1.6161 13.3409
58 3 12.3907 3.90845 11.0167
75 3 0.539037 6.2476 10.538
17 1 1.18526 6.52011 12.6537
37 2 3.99155 6.63924 12.3694
51 3 3.42794 6.38199 10.8582
52 3 0.28814 8.02475 12.5828
83 3 2.80495 6.8482 13.245
11 1 6.97272 5.48867 13.0461
34 2 6.17391 8.64878 11.6194
46 3 4.87295 5.44032 12.5423
62 3 5.1382 8.08793 12.5008
85 3 7.50465 9.37729 12.0056
28 1 8.74952 7.91027 11.7671
90 3 8.61336 6.48045 12.9747
4 1 5.10507 3.91462 11.647
5 1 12.1337 7.82382 11.3294
33 2 9.88439 5.64317 12.4692
65 3 9.55939 4.14356 12.5767
72 3 11.2208 5.8759 13.0731
80 3 10.0775 6.005 10.8714
2 1 1.23189 12.7112 12.4763
29 2 3.14823 10.7755 10.9692
35 2 0.709986 9.60022 12.2752
50 3 4.31946 11.6539 11.7883
87 3 2.21959 11.9368 10.9363
91 3 2.16213 9.52165 11.5459
64 3 0.780164 10.888 13.0933
74 3 6.06696 9.3358 10.3056
3 1 6.04641 12.3887 11.6878
6 1 8.28613 11.0204 11.3337
97 3 7.63535 12.4299 12.1747
70 3 13.1068 10.0567 10.9749
25 1 11.6608 11.308 11.8142
49 3 10.218 9.43536 11.6286
66 3 12.4432 12.8621 11.3747
84 3 10.6436 12.559 12.902
ITEM: TIMESTEP
1300
ITEM: NUMBER OF ATOMS
178
ITEM: BOX BOUNDS pp pp pp
0.0000000000000000e+00 1.3168533823700001e+01
0.0000000000000000e+00 1.3168533823700001e+01
0.0000000000000000e+00 3.5381309593600001e+01
ITEM: ATOMS id type x y z
143 6 3.65169 1.07876 0.711966
149 6 1.4776 1.71805 2.58747
163 7 4.0813 2.62393 3.34268
101 4 2.87703 3.3115 0.918118
104 4 7.91774 2.12204 0.961615
109 4 6.76652 3.32651 3.37513
147 6 6.17534 0.753084 2.87318
159 7 5.56133 2.96143 1.10404
127 5 10.2443 3.33706 2.00478
144 6 13.1011 3.6401 0.989262
151 6 12.0469 1.31082 3.42427
167 7 12.804 0.209804 0.894926
148 6 10.1635 0.260721 1.34731
105 4 1.924 5.25833 1.10688
120 5 2.51958 7.70949 1.5263
142 6 4.38885 9.39772 0.398996
122 5 4.30697 5.26489 2.12863
102 4 6.12558 7.05295 0.922663
123 5 7.79163 4.97256 1.6308
145 6 8.29022 7.928 2.2705
165 7 4.8977 8.29061 3.00181
103 4 10.4265 5.87841 1.07931
124 5 13.0101 6.45415 2.13022
169 7 9.66245 6.24606 3.48707
108 4 3.41705 12.9879 3.49185
106 4 2.03886 12.4052 0.92618
128 5 2.83381 10.1262 2.59963
161 7 0.255991 9.19461 3.00858
141 6 0.17815 10.5177 0.92311
113 4 0.506811 12.1366 3.35655
100 4 5.215 12.1036 1.32482
107 4 6.73082 9.90261 1.38524
129 5 8.11403 11.5073 3.04869
166 7 7.68984 12.882 0.891392
125 5 11.0891 8.44052 1.64892
115 4 11.3585 11.2976 2.42941
121 5 9.35204 10.2703 0.875606
117 4 2.55467 3.63403 6.44598
126 5 1.98795 4.54721 3.75895
130 5 1.85964 0.631174 5.41058
177 7 0.169781 2.67983 5.4651
131 5 4.93823 1.55664 5.46233
134 5 7.45522 2.22969 5.72907
171 7 8.81485 1.1484 3.4528
112 4 4.82046 4.36308 5.12635
139 6 9.43545 0.453593 6.4122
175 7 12.3439 0.204687 5.99711
178 7 10.5091 2.61056 5.20035
172 7 8.96996 4.27602 4.38504
136 5 2.96075 6.34713 6.24775
152 6 0.545393 5.57067 5.93853
153 6 1.1258 8.69593 6.07549
168 7 2.21915 7.36987 4.02571
110 4 6.65561 6.19596 3.78368
133 5 5.55248 7.26704 6.14698
156 6 7.12411 4.904 6.22403
132 5 12.2516 4.60141 3.431
118 4 10.3848 8.73549 6.77057
137 5 10.6881 5.52989 6.13032
150 6 12.1264 7.43554 4.51311
173 7 8.49345 7.339 5.64837
99 4 0.877091 11.7015 6.95577
111 4 1.95042 10.8599 4.95426
164 7 4.02101 9.16702 5.40829
176 7 4.13134 12.1454 6.14912
114 4 5.22449 11.0765 3.56526
155 6 6.93375 12.569 5.45089
162 7 5.99326 10.3497 6.51315
170 7 7.00046 9.34384 4.5224
116 4 10.2207 12.3694 4.37225
154 6 9.93262 9.34203 4.01064
157 6 12.0831 10.3381 5.42709
174 7 8.88839 10.7302 6.11283
32 2 3.13065 0.24886 7.93846
61 3 0.319589 4.12543 9.19663
68 3 3.39515 0.922107 9.2472
79 3 0.633904 1.07402 9.72214
140 6 0.587994 1.32365 7.78691
69 3 3.79108 3.88745 8.67882
23 1 7.59116 2.26987 9.14156
39 2 4.85608 3.23462 7.65587
76 3 5.67339 2.28522 8.75519
78 3 7.64887 0.120116 8.97463
26 1 4.38349 2.71408 9.9802
30 2 11.3909 1.97463 7.35727
48 3 8.82998 3.51906 9.46444
67 3 11.2998 2.73458 8.75492
89 3 10.598 12.5469 9.76345
160 7 9.29106 3.27579 7.41599
18 1 12.3071 4.08634 7.91185
9 1 11.9706 0.85942 9.94915
22 1 10.6182 3.36439 10.5312
10 1 2.43102 4.69093 9.89713
12 1 2.57453 7.6668 9.42803
38 2 12.7313 5.17619 10.1934
44 3 2.33058 5.83727 8.33356
54 3 0.704067 7.88701 8.74271
20 1 4.30898 5.73849 8.73791
56 3 3.30549 7.91592 7.81787
42 2 6.80542 6.27137 9.389
45 3 8.37856 8.37255 9.69447
57 3 5.84617 7.16564 8.49203
82 3 7.08806 6.78579 10.8131
94 3 8.18756 5.95453 8.74636
158 6 7.78215 8.89511 7.77868
43 3 6.05587 4.94705 9.75124
27 1 9.66288 6.91706 9.1971
77 3 11.4364 8.20166 9.36139
92 3 11.5752 5.66375 9.1764
135 5 12.1942 7.15703 7.38542
19 1 0.509558 11.3595 10.2618
96 3 1.25702 10.6007 8.67245
138 5 3.00397 10.2064 7.52425
60 3 3.46704 10.3694 9.69703
119 5 5.65711 13.0835 7.89973
7 1 5.29744 10.7101 9.02552
31 2 7.9085 11.8666 8.09136
81 3 5.78369 11.9917 9.90608
98 3 8.23195 10.8883 9.3051
14 1 12.8863 9.50217 8.79029
15 1 9.88536 9.70273 9.47887
88 3 11.9126 10.687 9.32461
146 6 11.0577 11.76 7.5333
1 1 9.28806 0.855296 10.182
36 2 2.4628 2.68862 12.2632
59 3 1.04901 3.38948 12.3286
71 3 3.48298 2.86214 13.4877
86 3 2.10058 1.03657 11.9064
93 3 3.06344 3.28164 11.0019
8 1 2.05782 0.262455 10.3086
41 2 6.7051 2.25979 12.1344
55 3 6.7956 1.29525 13.302
63 3 5.37462 2.34399 11.4109
73 3 6.97328 3.80927 12.2229
95 3 7.81951 1.47485 11.1171
24 1 7.86585 4.73403 10.614
13 1 4.95206 1.49459 13.365
16 1 8.30908 0.183391 12.2674
21 1 12.4754 3.03661 12.2864
40 2 11.4684 0.226782 12.2188
47 3 11.0409 1.55219 11.2832
53 3 12.4538 0.713918 13.2225
58 3 12.1244 4.33595 11.1938
75 3 0.591124 6.16474 10.8957
17 1 1.26258 6.3231 12.8528
37 2 4.22528 6.76588 11.8081
51 3 3.77831 6.2383 10.2874
52 3 0.731423 8.13781 12.8392
83 3 3.04959 6.50479 12.7852
11 1 7.09762 5.75106 13.2749
34 2 6.46702 8.43574 10.9383
46 3 5.29312 5.9315 12.7344
62 3 4.83704 7.99413 11.1895
85 3 7.21136 8.82759 12.2111
28 1 8.77652 7.90706 11.7442
90 3 8.87166 6.19406 13.3266
4 1 4.93302 4.28722 11.6537
5 1 12.8732 7.69532 10.6909
33 2 10.0863 5.63013 12.4985
65 3 9.82008 4.13829 12.464
72 3 11.5135 6.27683 12.8748
80 3 9.96992 6.38478 11.025
2 1 1.08545 12.7586 12.8042
29 2 3.09729 10.7603 11.2353
35 2 0.91602 9.4839 12.361
50 3 4.21058 11.3943 11.9618
87 3 1.96484 11.9192 11.1564
91 3 2.46976 9.46923 11.6135
64 3 0.681001 10.7259 13.2914
74 3 6.09689 9.23648 9.76875
3 1 6.03322 11.7358 11.6044
6 1 8.40964 10.2604 12.3101
97 3 7.5138 11.8507 12.3875
70 3 0.207166 9.54803 10.9192
25 1 11.3672 10.7405 11.5657
49 3 9.96894 9.43842 11.6664
66 3 12.5967 12.2947 11.4455
84 3 10.2246 12.7606 12.5717
ITEM: TIMESTEP
1400
ITEM: NUMBER OF ATOMS
178
ITEM: BOX BOUNDS pp pp pp
0.0000000000000000e+00 1.3168533823700001e+01
0.0000000000000000e+00 1.3168533823700001e+01
0.0000000000000000e+00 3.5381309593600001e+01
ITEM: ATOMS id type x y z
143 6 3.71597 1.07109 0.856913
149 6 1.40164 1.51923 2.61922
163 7 3.76197 2.51957 3.24638
101 4 2.61341 3.44724 1.00224
104 4 7.976 2.44189 1.26942
109 4 6.30856 3.54037 3.48519
147 6 6.01519 0.874997 3.07146
159 7 5.45951 2.86455 1.11956
127 5 10.3874 3.11088 1.99771
144 6 0.00346036 3.7457 1.35181
151 6 12.0029 1.36563 3.22907
167 7 12.782 0.110865 0.848834
148 6 10.101 0.117221 1.3363
105 4 2.01978 5.80767 1.1752
120 5 2.62316 7.9799 1.29973
142 6 4.56298 9.68926 0.670987
122 5 4.53149 5.32858 2.26949
102 4 5.80059 7.32516 0.902884
123 5 7.69886 5.11933 1.51367
145 6 8.03331 7.84407 2.1203
165 7 4.78818 8.09122 3.18893
103 4 10.8151 5.19038 1.63309
124 5 13.1259 6.4271 2.57508
169 7 9.83336 6.52447 3.41086
108 4 3.5599 12.9474 3.20465
106 4 2.07067 12.2902 1.1472
128 5 2.83264 10.4126 2.55059
161 7 0.35847 9.28309 3.19151
141 6 0.37554 10.5057 0.643914
113 4 0.324737 12.0955 3.34611
100 4 4.93911 12.0058 1.05286
107 4 6.87224 9.91807 1.58359
129 5 8.2662 11.7547 3.20622
166 7 7.63914 12.8321 0.997798
125 5 10.9377 8.13039 1.65719
115 4 11.4485 11.1124 2.13661
121 5 9.36082 10.3776 1.19249
117 4 2.53017 3.12026 6.07705
126 5 1.76095 4.34136 3.43747
130 5 1.84939 0.778325 5.38035
177 7 0.1356 2.84328 5.39425
131 5 4.81521 1.50357 5.70747
134 5 7.40732 2.17433 5.78532
171 7 8.87082 1.42172 3.49503
112 4 4.66823 4.66593 5.04652
139 6 9.48663 0.468507 6.55665
175 7 12.3602 0.0154707 5.94212
178 7 10.5935 2.44496 5.31503
172 7 8.90204 4.18716 4.18378
136 5 3.11329 6.31792 6.20982
152 6 0.623101 5.71768 5.43709
153 6 1.18035 8.53432 6.01222
168 7 2.24793 7.26724 3.82055
110 4 6.69981 6.29611 3.9368
133 5 5.83616 7.46693 6.17396
156 6 7.27969 4.77165 6.1392
132 5 11.7623 4.52687 4.01673
118 4 10.5678 8.80469 6.66387
137 5 10.3135 5.40969 6.281
150 6 11.7901 7.61023 4.81588
173 7 8.62928 7.37673 5.76627
99 4 1.02763 11.6148 7.03246
111 4 1.84064 11.0992 5.01339
164 7 3.90868 9.2386 5.28892
176 7 4.06602 12.0496 5.95452
114 4 5.37006 11.1149 3.67839
155 6 7.17719 12.6836 5.40402
162 7 6.0145 10.4832 6.62326
170 7 7.19463 9.19522 4.5391
116 4 10.6265 12.3841 4.29305
154 6 9.9562 9.54465 3.87204
157 6 12.3052 10.4496 5.39942
174 7 8.99135 10.889 6.23699
32 2 2.88835 13.1619 7.95465
61 3 0.79025 3.99469 8.77113
68 3 2.85794 0.545888 9.26978
79 3 0.643005 1.55124 9.79937
140 6 0.776256 1.53757 7.74683
69 3 3.77667 3.43434 7.89753
23 1 7.23117 2.1901 9.38067
39 2 5.20104 3.1108 7.80666
76 3 5.59108 1.81499 8.76645
78 3 7.61761 13.0939 8.92988
26 1 3.68249 2.18061 9.52595
30 2 11.6286 1.95967 7.17273
48 3 9.16459 2.79407 9.45624
67 3 11.6025 2.57432 8.58653
89 3 10.1589 12.8539 9.16149
160 7 9.17527 3.40386 7.33961
18 1 12.255 3.97428 7.57746
9 1 12.0585 0.63854 9.39419
22 1 10.5608 3.09336 10.9169
10 1 2.27788 4.83395 9.96978
12 1 2.75151 8.48643 10.3995
38 2 12.8961 4.87576 9.76871
44 3 2.53201 5.76657 8.28948
54 3 0.527737 7.68207 9.03791
20 1 4.43077 5.48177 8.65007
56 3 3.07947 8.3402 8.6887
42 2 6.73238 5.96646 8.74283
45 3 8.8729 8.21191 8.90539
57 3 5.42992 6.73 8.32317
82 3 6.98055 6.57023 10.3875
94 3 8.14908 5.40734 8.6351
158 6 7.60347 8.90758 7.63328
43 3 5.98803 4.46526 9.09744
27 1 9.73135 6.50279 8.6317
77 3 11.3338 7.95511 9.14028
92 3 11.9264 5.59996 8.87537
135 5 12.587 7.12465 7.37641
19 1 12.949 11.2336 9.83577
96 3 1.10337 10.0885 9.00696
138 5 3.15758 10.2664 7.75373
60 3 3.74679 10.2531 9.91443
119 5 5.84334 12.9981 7.6709
7 1 5.55054 10.7476 9.24936
31 2 8.05446 11.7794 8.39271
81 3 5.31677 12.5695 9.9654
98 3 8.09126 10.8102 9.66902
14 1 12.7712 9.36873 8.50983
15 1 9.85483 9.53541 9.57614
88 3 11.5623 10.4968 9.47538
146 6 11.1063 11.6487 7.62811
1 1 8.91548 0.788952 9.88537
36 2 2.17178 2.96306 12.5546
59 3 1.03795 3.56016 13.0527
71 3 3.39012 2.95433 13.4874
86 3 1.8957 0.990765 12.226
93 3 2.55842 2.93919 11.0538
8 1 1.52731 0.0169925 10.303
41 2 6.75512 2.35183 11.8198
55 3 6.63461 1.70816 13.2219
63 3 5.26277 2.45163 11.2881
73 3 7.13701 3.9286 11.35
95 3 7.6691 1.41082 10.9873
24 1 8.61764 4.59036 10.6407
13 1 4.47879 1.57286 12.8905
16 1 8.22964 0.0511318 12.529
21 1 13.0469 2.33961 11.856
40 2 11.5108 0.176383 12.2206
47 3 11.2219 1.22853 11.2724
53 3 12.5481 0.569122 13.2187
58 3 12.2468 3.67943 10.5086
75 3 0.574467 5.5731 10.8169
17 1 0.964235 6.18379 12.6456
37 2 4.13987 6.36656 11.7513
51 3 3.90043 5.36116 10.512
52 3 0.525459 7.89805 12.9771
83 3 2.80917 6.54699 12.4162
11 1 7.08692 5.6519 12.4617
34 2 6.24608 8.09115 10.7717
46 3 5.31106 5.70106 12.5815
62 3 4.84256 7.68597 11.0853
85 3 7.04334 8.53679 11.9674
28 1 8.77454 7.94275 11.2077
90 3 8.79368 6.57254 12.9521
4 1 5.50053 4.37074 11.0562
5 1 12.5983 7.2703 10.5961
33 2 9.82524 5.82805 12.3213
65 3 9.57982 4.14769 12.1378
72 3 11.2277 6.22534 12.7882
80 3 9.59825 6.15669 10.6157
2 1 0.953578 12.7327 12.9402
29 2 3.05043 10.6023 11.2689
35 2 0.795457 9.30063 12.4512
50 3 4.19998 10.847 12.1908
87 3 1.9719 11.6113 10.8599
91 3 2.13376 9.25333 11.659
64 3 0.902616 10.6222 13.3592
74 3 6.17005 9.08672 9.67822
3 1 5.60959 11.8088 11.6181
6 1 8.14852 10.012 12.7038
97 3 7.17156 11.6585 12.2916
70 3 12.6797 9.25245 11.4584
25 1 11.1841 10.506 11.7793
49 3 9.53877 9.6468 11.5019
66 3 12.4363 12.2685 11.377
84 3 10.1609 12.774 12.7554
ITEM: TIMESTEP
1500
ITEM: NUMBER OF ATOMS
178
ITEM: BOX BOUNDS pp pp pp
0.0000000000000000e+00 1.3168533823700001e+01
0.0000000000000000e+00 1.3168533823700001e+01
0.0000000000000000e+00 3.5381309593600001e+01
ITEM: ATOMS id type x y z
143 6 3.77191 1.1861 0.630228
149 6 1.338 1.56185 2.32159
163 7 3.67991 2.58066 3.20818
101 4 2.65065 3.58213 0.950994
104 4 7.85371 2.59341 1.60424
109 4 6.37901 3.62494 3.68504
147 6 5.95514 0.688524 2.95002
159 7 5.5164 2.99281 1.07194
127 5 10.2762 2.66665 1.77553
144 6 12.9386 3.7994 1.6345
151 6 11.7268 1.32827 3.38474
167 7 12.6349 0.135047 1.0976
148 6 9.96116 0.0303284 1.30848
105 4 2.0219 5.90339 1.00689
120 5 2.68486 8.02 1.19273
142 6 4.73708 9.6875 0.636432
122 5 4.3396 5.28864 2.36194
102 4 5.38571 7.12527 1.02938
123 5 7.89249 5.15276 1.61108
145 6 7.91677 7.96014 1.91556
165 7 5.17812 8.15272 3.22224
103 4 10.632 5.27222 1.32107
124 5 13.0704 6.50365 2.51621
169 7 9.77712 6.43646 3.34139
108 4 3.32899 12.835 3.34981
106 4 2.19539 12.3055 0.944966
128 5 3.00384 10.1393 2.87192
161 7 0.157388 9.18246 3.35474
141 6 0.659525 10.3613 0.891356
113 4 0.593477 12.1396 3.26649
100 4 4.79505 12.1831 1.21855
107 4 6.74624 10.2294 1.79455
129 5 8.14223 11.6095 3.36831
166 7 7.43164 0.0801995 1.08933
125 5 11.2653 8.28951 1.69071
115 4 11.5149 11.2027 2.06429
121 5 9.23229 10.1883 0.980801
117 4 2.80675 3.51769 6.07928
126 5 1.86725 4.45 3.70323
130 5 2.01339 0.789278 5.22798
177 7 0.26325 2.70142 5.28112
131 5 4.9263 1.51241 5.28465
134 5 7.33906 2.35453 5.86017
171 7 8.56618 1.13089 3.76377
112 4 4.51118 5.03207 5.03234
139 6 9.45425 0.213493 6.78024
175 7 12.6339 0.305296 5.85503
178 7 10.3401 2.27124 5.26495
172 7 8.97226 4.02857 3.84685
136 5 3.09202 6.68327 6.30508
152 6 0.699817 5.93678 5.42637
153 6 1.13006 8.63454 6.01749
168 7 2.72553 7.07338 3.65606
110 4 6.74402 6.36617 3.78607
133 5 5.6222 7.40092 6.26751
156 6 7.34902 5.13907 6.1803
132 5 11.6791 4.41155 4.02602
118 4 10.5896 8.84315 6.907
137 5 10.3422 5.27007 6.17346
150 6 11.8421 7.61829 4.99708
173 7 8.87791 7.49773 5.66037
99 4 0.942559 11.94 7.41629
111 4 1.84993 11.0546 5.2265
164 7 3.90245 9.19565 5.31325
176 7 4.0824 12.1245 6.12908
114 4 5.3048 11.0645 3.57358
155 6 6.95211 12.6354 5.5682
162 7 5.92152 10.4894 6.50202
170 7 7.1711 9.28658 4.63341
116 4 10.5979 12.3684 4.4268
154 6 10.0017 9.51107 3.73129
157 6 12.2446 10.5793 5.56676
174 7 9.11372 10.5993 6.04976
32 2 3.15889 0.313857 7.46975
61 3 0.703789 3.28037 9.08352
68 3 3.12081 0.821561 8.9791
79 3 0.666943 0.890808 9.72984
140 6 1.1478 1.61715 7.65586
69 3 3.65377 3.36396 8.39568
23 1 7.41471 2.05374 8.86805
39 2 4.75919 2.62776 7.71219
76 3 5.70708 2.11571 8.73387
78 3 8.00078 13.1444 8.54165
26 1 3.66484 2.10345 9.93399
30 2 11.8464 2.02561 7.06031
48 3 9.01588 2.704 9.30355
67 3 11.4673 2.49441 8.58339
89 3 10.3038 13.0735 8.8336
160 7 9.2607 3.25936 7.25854
18 1 12.3401 3.88249 7.64361
9 1 12.1644 0.590701 9.18842
22 1 10.8294 2.9629 10.258
10 1 2.39676 4.21765 9.39504
12 1 2.04306 8.21445 9.86651
38 2 0.0706386 4.24153 10.0272
44 3 2.44476 5.74359 8.28875
54 3 0.525002 7.74323 9.31416
20 1 4.08603 5.45882 8.74969
56 3 3.77403 7.85734 8.03368
42 2 6.70465 5.56315 9.02961
45 3 8.34663 8.09691 9.42618
57 3 5.89742 6.68826 8.37467
82 3 6.51435 6.0888 10.5818
94 3 8.2134 5.21537 9.0202
158 6 7.77784 9.1415 7.61916
43 3 5.81728 4.35422 8.76626
27 1 9.30498 6.48877 8.5075
77 3 11.3404 8.2916 9.28539
92 3 12.2466 5.11014 9.17984
135 5 12.6616 6.7008 7.74078
19 1 0.433726 10.7965 10.7351
96 3 0.938314 10.5807 9.00712
138 5 3.22383 10.0815 7.65129
60 3 3.75366 10.3395 9.66831
119 5 5.62754 0.0217601 7.91665
7 1 5.36645 10.5644 9.10059
31 2 7.95365 11.5614 7.9371
81 3 5.4759 12.2403 9.79675
98 3 7.78381 10.8045 9.30751
14 1 12.6881 9.26167 8.51076
15 1 9.95587 9.26468 9.6255
88 3 10.9594 10.6969 9.37811
146 6 11.1597 11.5834 7.61761
1 1 9.24475 0.845692 9.95937
36 2 2.25064 2.8793 12.2727
59 3 1.06682 3.64632 12.9259
71 3 3.7476 3.22567 12.9636
86 3 2.0078 1.43118 12.2805
93 3 2.50307 2.93973 10.7245
8 1 1.85361 0.129498 10.8139
41 2 6.63586 1.95755 11.6626
55 3 6.24367 1.94968 13.1929
63 3 5.11024 1.56986 11.0662
73 3 6.99725 3.42779 11.2608
95 3 7.77527 1.13709 10.9594
24 1 8.11503 4.70479 11.1129
13 1 4.62082 2.15727 13.8925
16 1 8.0825 13.1541 12.5837
21 1 0.064836 1.96069 12.1425
40 2 11.0966 0.0243616 12.0949
47 3 10.8418 1.22593 11.0732
53 3 12.0468 0.417726 13.1844
58 3 12.4326 3.46615 10.9248
75 3 0.830277 5.3841 10.5959
17 1 0.864607 5.58628 12.5214
37 2 3.91958 6.0048 11.5722
51 3 3.93833 5.04561 10.3412
52 3 0.654573 7.7073 13.1624
83 3 2.72082 5.97958 12.2748
11 1 6.94026 6.19423 12.6184
34 2 5.79748 7.67762 10.3434
46 3 5.10221 5.63766 12.4166
62 3 4.32768 7.42812 10.7159
85 3 6.64232 8.32516 11.4676
28 1 8.54446 8.17471 11.4722
90 3 8.88166 6.23261 12.1399
4 1 4.98969 3.70529 11.0938
5 1 12.5942 7.28552 10.7723
33 2 10.3201 5.61127 11.5178
65 3 10.0652 4.10548 11.7168
72 3 11.6698 6.17847 12.1849
80 3 10.1695 5.95752 10.0215
2 1 13.0707 11.9697 13.7163
29 2 3.25288 10.5081 11.1755
35 2 0.437538 9.03209 12.7722
50 3 4.14748 11.0607 12.3243
87 3 2.10474 11.7114 11.2845
91 3 2.20103 9.47217 11.3401
64 3 0.433182 10.3312 13.6689
74 3 5.71795 8.68611 9.1754
3 1 5.34169 12.2932 11.6768
6 1 7.85009 10.9806 11.2499
97 3 6.98101 11.9519 12.2501
70 3 12.8167 9.06469 11.4318
25 1 10.8235 10.8713 11.2715
49 3 9.77382 9.50422 11.2818
66 3 12.1467 12.0184 11.2225
84 3 9.58879 12.4301 12.2474
ITEM: TIMESTEP
1600
ITEM: NUMBER OF ATOMS
178
ITEM: BOX BOUNDS pp pp pp
0.0000000000000000e+00 1.3168533823700001e+01
0.0000000000000000e+00 1.3168533823700001e+01
0.0000000000000000e+00 3.5381309593600001e+01
ITEM: ATOMS id type x y z
143 6 3.70457 1.30213 0.503333
149 6 1.28219 1.67649 2.32675
163 7 3.88012 2.64576 3.20757
101 4 2.54599 3.47442 0.845828
104 4 8.01832 2.53558 1.46716
109 4 6.44557 3.40478 3.64978
147 6 5.7016 0.86681 3.02497
159 7 5.627 2.93956 1.05737
127 5 10.3179 2.62419 2.07794
144 6 12.8306 3.7465 1.22496
151 6 12.0019 1.15162 3.47931
167 7 12.5675 0.0902454 1.15134
148 6 9.78318 13.0378 1.53823
105 4 1.86243 5.53727 1.06647
120 5 2.58855 7.77541 1.51841
142 6 4.59166 9.40424 0.525401
122 5 4.46312 5.38977 2.10796
102 4 5.49656 7.13476 0.820599
123 5 7.51214 5.16064 1.43143
145 6 8.06497 8.13257 1.95632
165 7 5.15855 8.43168 3.07953
103 4 10.3161 4.99306 1.33848
124 5 13.1265 6.54532 2.63431
169 7 9.63662 6.41631 3.33651
108 4 3.12741 13.0387 3.22719
106 4 2.12473 12.3416 0.86652
128 5 2.83285 10.1847 2.75424
161 7 0.260807 9.07834 3.43302
141 6 0.508302 10.339 1.31708
113 4 0.418206 12.1672 3.45742
100 4 4.77944 11.9976 1.06868
107 4 6.86904 10.269 1.18423
129 5 8.14444 11.5534 3.11061
166 7 7.27659 0.272376 0.912719
125 5 11.3777 8.34765 1.41133
115 4 11.4931 11.158 2.50344
121 5 9.56167 10.2845 0.887613
117 4 2.52852 3.85151 6.07301
126 5 1.79022 4.4982 3.406
130 5 2.28714 0.994098 5.33889
177 7 0.344078 2.89593 5.09779
131 5 4.78226 1.6873 5.77632
134 5 7.42439 2.30327 5.95023
171 7 8.53003 0.989982 3.65566
112 4 4.60631 5.21989 4.8305
139 6 9.43847 0.285799 6.76515
175 7 12.5921 0.0506526 5.97809
178 7 10.3752 2.21571 5.32689
172 7 8.93141 4.0302 4.05573
136 5 2.91915 6.72771 6.67401
152 6 0.68538 5.81577 5.60984
153 6 1.12934 8.70718 5.85693
168 7 2.72891 7.2891 4.02801
110 4 7.03072 6.33986 3.58977
133 5 6.00487 7.47415 6.10958
156 6 7.75847 5.09614 5.91215
132 5 11.9408 4.57782 3.87316
118 4 10.8561 8.66159 6.91121
137 5 10.5381 5.29607 5.94764
150 6 11.7513 7.42691 4.9489
173 7 8.85817 7.65241 5.69299
99 4 1.09043 12.0059 7.34594
111 4 1.75722 11.2489 5.23792
164 7 3.94548 9.19012 5.36263
176 7 3.98077 12.1114 6.10912
114 4 5.29191 11.3731 3.84937
155 6 6.97034 12.6757 5.56539
162 7 5.96879 10.2703 6.62741
170 7 7.19624 9.29419 4.46789
116 4 10.2961 12.4089 4.4166
154 6 10.1303 9.21431 3.73135
157 6 12.1663 10.4326 5.46232
174 7 9.03257 10.7986 5.96898
32 2 3.0448 0.106226 8.09608
61 3 1.16141 3.60033 8.67794
68 3 3.27203 0.131316 9.56537
79 3 0.561573 1.08295 9.56105
140 6 1.04206 1.70915 7.60345
69 3 3.80383 3.59944 8.21202
23 1 7.46383 1.41222 9.03277
39 2 5.09594 2.88137 8.0448
76 3 5.55143 2.03706 9.24471
78 3 7.95476 12.8913 8.5924
26 1 4.43701 2.621 10.5752
30 2 11.8306 1.98911 7.00613
48 3 9.0902 2.28874 9.37898
67 3 11.6028 2.48876 8.39907
89 3 10.2608 0.110398 8.77964
160 7 9.42405 3.34073 7.41135
18 1 12.3044 4.07591 7.30283
9 1 11.8659 0.915071 9.20874
22 1 10.8738 3.13657 10.2376
10 1 2.44074 4.31073 10.1502
12 1 2.64706 7.36666 9.76739
38 2 0.0136943 4.17958 9.78023
44 3 2.75581 5.86924 8.73877
54 3 0.678352 7.53416 9.18872
20 1 4.41207 5.69995 8.94379
56 3 3.30649 8.16005 8.17025
42 2 6.66804 5.68906 8.85863
45 3 8.66441 7.91344 9.4235
57 3 5.66256 6.64839 8.12604
82 3 6.69608 6.38752 10.5219
94 3 8.07608 5.02852 8.66848
158 6 7.85889 8.92092 7.65712
43 3 5.97056 4.40535 8.9874
27 1 9.43826 6.43423 8.09276
77 3 11.5429 8.28187 9.12379
92 3 12.0218 4.7155 8.98498
135 5 12.2769 6.7199 7.5822
19 1 0.330133 10.7165 10.6302
96 3 0.801036 10.4962 8.92224
138 5 2.99584 10.2903 7.6235
60 3 3.03105 9.7675 9.89063
119 5 5.63227 13.0531 7.90405
7 1 4.87975 10.5195 9.55673
31 2 7.99236 11.4604 7.85684
81 3 5.79757 12.338 9.97515
98 3 8.20985 10.7305 9.41451
14 1 12.9053 9.03707 8.35203
15 1 9.73663 9.61565 9.70988
88 3 10.9793 11.014 9.55495
146 6 11.2288 11.6372 7.598
1 1 9.39942 0.659329 10.4325
36 2 2.39762 2.78333 12.6511
59 3 1.46434 3.82898 13.0872
71 3 3.95401 3.05686 13.104
86 3 1.63697 1.36677 12.7096
93 3 2.57897 2.64825 10.9104
8 1 1.89665 0.640403 10.8351
41 2 6.4372 1.62449 11.7711
55 3 7.12795 1.59296 13.2792
63 3 5.0878 0.870369 12.0808
73 3 6.09358 3.01232 11.52
95 3 7.81621 1.18417 11.0936
24 1 7.97893 4.04216 10.7894
13 1 5.26081 1.87948 13.5808
16 1 8.40278 0.261197 12.9539
21 1 12.8936 2.05333 12.4813
40 2 11.2102 0.0998956 11.8882
47 3 11.0807 1.16032 10.811
53 3 11.5164 0.819644 13.1563
58 3 12.8663 3.05127 10.7775
75 3 0.834989 5.15272 10.7411
17 1 0.778143 5.66295 12.5248
37 2 4.08888 6.49025 12.0431
51 3 4.06894 5.17458 10.9577
52 3 0.158955 7.83006 13.0536
83 3 2.67771 6.41926 12.3299
11 1 7.05196 6.71154 12.7767
34 2 5.87234 8.01597 10.6428
46 3 5.33808 6.28308 12.7164
62 3 4.32698 7.78989 10.8002
85 3 6.61627 8.40789 11.9079
28 1 8.349 7.96231 11.2047
90 3 8.95835 6.53195 11.9843
4 1 5.11805 4.35009 12.2217
5 1 12.4702 7.57257 10.6464
33 2 10.222 5.72948 11.2375
65 3 9.94269 4.12026 11.5204
72 3 11.5699 6.11089 11.5889
80 3 9.91455 5.76552 9.72018
2 1 0.947079 12.0106 13.0413
29 2 2.94856 10.2387 11.3067
35 2 0.67697 9.0763 12.7078
50 3 4.27371 10.7709 11.8668
87 3 2.00232 11.4837 11.4839
91 3 1.96972 9.24629 12.0213
64 3 0.357854 10.3871 13.5216
74 3 6.05206 9.04059 9.56271
3 1 5.42911 12.2243 12.0825
6 1 7.7567 11.6317 10.8492
97 3 7.18153 11.833 12.6037
70 3 12.4643 9.35529 11.3647
25 1 10.9115 10.3257 11.9532
49 3 9.32613 9.451 11.5074
66 3 12.4448 12.2811 11.5752
84 3 9.73874 12.3717 11.7817
ITEM: TIMESTEP
1700
ITEM: NUMBER OF ATOMS
178
ITEM: BOX BOUNDS pp pp pp
0.0000000000000000e+00 1.3168533823700001e+01
0.0000000000000000e+00 1.3168533823700001e+01
0.0000000000000000e+00 3.5381309593600001e+01
ITEM: ATOMS id type x y z
143 6 3.82991 0.971215 0.848098
149 6 1.38869 1.81037 2.45979
163 7 3.73171 2.8501 3.34084
101 4 2.82386 3.46387 0.918733
104 4 8.18261 2.54116 1.31984
109 4 6.18202 3.68641 3.64311
147 6 5.88548 0.845274 3.21723
159 7 5.55327 2.77738 1.05517
127 5 10.9247 2.42824 2.02338
144 6 12.9833 3.82953 0.791745
151 6 12.1057 0.92435 3.65288
167 7 12.5847 0.0287528 1.01038
148 6 9.90671 0.0231134 1.4871
105 4 1.62487 5.53981 0.818041
120 5 2.47491 7.79077 1.71032
142 6 4.16781 9.34158 0.340657
122 5 4.38459 5.44117 2.13696
102 4 6.33712 7.31612 0.897914
123 5 7.5292 5.14775 1.67943
145 6 8.20557 8.26731 1.85611
165 7 4.89616 8.32948 2.90822
103 4 10.2576 4.73351 1.28375
124 5 12.9904 6.31856 2.22317
169 7 9.61619 6.3308 3.33845
108 4 3.51649 0.0980058 3.45839
106 4 1.8905 12.4438 1.20531
128 5 2.9798 10.3199 2.59345
161 7 0.507056 9.19092 3.35021
141 6 0.158542 10.5732 0.892957
113 4 0.688714 12.0856 3.32201
100 4 4.77596 11.8628 1.12736
107 4 6.49644 10.0528 1.22231
129 5 8.08674 11.6156 2.83063
166 7 6.98176 0.191541 0.939455
125 5 11.0832 7.96301 1.85488
115 4 11.4201 11.3495 2.6303
121 5 9.88285 10.055 1.07215
117 4 2.81892 3.73486 6.15695
126 5 1.71674 4.58994 3.3192
130 5 1.85353 0.725572 5.15861
177 7 0.151191 2.77783 5.33532
131 5 4.92985 1.87562 5.55792
134 5 7.53928 2.28191 5.91451
171 7 8.41178 1.25722 3.60258
112 4 4.52259 5.03864 4.93163
139 6 9.52078 0.500912 6.88081
175 7 12.426 0.0552538 5.97279
178 7 10.4989 2.44397 5.16474
172 7 8.98403 3.90269 3.69952
136 5 3.16942 6.495 6.99531
152 6 0.655226 5.64003 5.56063
153 6 1.19947 8.50975 6.1662
168 7 2.61232 7.05313 4.28953
110 4 6.60355 6.44615 3.68139
133 5 5.60434 7.45684 5.91512
156 6 7.66278 5.03137 5.87059
132 5 11.8488 4.3616 3.44971
118 4 10.517 8.89187 6.70657
137 5 10.6752 5.17276 5.96695
150 6 11.9527 7.48098 4.79966
173 7 8.89871 7.48346 5.63354
99 4 0.987781 11.853 7.05732
111 4 1.89568 11.0568 5.2967
164 7 4.08834 9.42566 5.40991
176 7 4.14744 12.2533 6.00485
114 4 5.39935 11.028 3.57098
155 6 7.07667 12.518 5.39665
162 7 6.04696 10.4641 6.63002
170 7 7.12538 9.41834 4.33713
116 4 10.0923 12.3739 4.52532
154 6 9.96076 9.47336 3.84328
157 6 12.1298 10.4354 5.47117
174 7 8.99789 10.6274 6.09718
32 2 2.87553 0.355247 7.67651
61 3 1.02355 3.53165 9.26677
68 3 3.48169 0.414956 9.05557
79 3 0.611329 0.907647 9.65951
140 6 0.911527 1.76526 7.71389
69 3 3.78141 3.60447 8.77912
23 1 7.28088 1.63862 9.03609
39 2 5.16411 3.17757 8.48206
76 3 5.4622 1.62186 9.22208
78 3 7.75752 13.0661 8.9754
26 1 4.46192 1.09578 10.6906
30 2 11.8436 2.23847 7.04291
48 3 9.06513 3.15707 9.46168
67 3 11.8526 2.61032 8.59011
89 3 10.1554 0.162482 8.91014
160 7 9.42958 3.39822 7.41404
18 1 12.706 4.00727 7.69503
9 1 11.8759 0.851079 9.0683
22 1 10.7425 3.46608 10.6859
10 1 2.69849 4.02769 10.1851
12 1 2.3581 7.6846 10.2668
38 2 0.243852 4.58256 10.2623
44 3 2.71194 5.90639 9.09742
54 3 0.601219 8.01404 9.7245
20 1 4.36025 5.96182 9.79229
56 3 2.96644 8.26326 8.35629
42 2 6.53988 5.99515 8.51668
45 3 8.76859 8.33514 9.43925
57 3 5.29662 6.23835 8.00244
82 3 6.6499 6.24104 10.2197
94 3 7.90994 5.82495 8.17213
158 6 7.74028 8.90275 7.56446
43 3 6.07041 3.98449 9.27134
27 1 9.53428 6.76515 8.39941
77 3 11.4022 8.15515 9.09682
92 3 12.4432 5.28561 9.18899
135 5 12.1937 6.92623 7.40904
19 1 0.400206 11.6756 10.488
96 3 1.00158 10.6682 9.0144
138 5 3.03647 10.2592 7.57231
60 3 3.39138 10.3991 9.79231
119 5 5.77711 12.6521 7.93987
7 1 5.07615 10.406 9.07443
31 2 7.97397 11.7913 8.06747
81 3 5.82101 11.7675 10.235
98 3 8.54802 11.0733 9.51115
14 1 12.5892 9.52759 8.92171
15 1 9.75392 9.81925 9.56901
88 3 11.6824 11.2757 9.50531
146 6 11.0943 11.5682 7.60633
1 1 9.38199 1.10776 10.334
36 2 2.6725 2.24317 12.8119
59 3 1.84022 3.60974 13.0636
71 3 3.77885 2.24485 13.8669
86 3 1.53323 1.32651 12.6692
93 3 3.05278 2.36348 11.1764
8 1 1.86208 0.903337 11.0372
41 2 6.6358 1.56224 12.1771
55 3 7.05801 1.17547 13.5625
63 3 5.17309 0.64275 12.1473
73 3 6.27378 3.22245 12.0522
95 3 7.70889 1.5644 11.1128
24 1 7.69542 3.79221 10.8381
13 1 5.05264 0.806874 14.075
16 1 8.22207 12.9995 13.0838
21 1 0.249799 2.53849 12.5309
40 2 11.3657 0.700642 11.987
47 3 11.3248 1.54108 10.8317
53 3 12.1062 1.43937 13.0688
58 3 12.5496 3.94679 11.4367
75 3 1.32275 5.40982 10.9075
17 1 1.66555 5.60601 12.8492
37 2 4.09888 6.16018 12.2416
51 3 3.95359 4.97761 11.1953
52 3 0.249813 8.26645 12.9787
83 3 2.9644 6.91114 12.7353
11 1 7.11616 6.30292 12.3046
34 2 6.25601 7.84446 10.5409
46 3 5.27731 5.78959 13.1301
62 3 4.83201 7.4552 10.9423
85 3 7.15567 8.22006 11.8216
28 1 9.17627 8.24459 11.611
90 3 8.82275 6.49337 12.0805
4 1 4.828 3.8105 12.9599
5 1 12.2939 7.73901 11.0934
33 2 9.99275 5.61652 11.4409
65 3 9.59513 4.24927 11.8204
72 3 11.3682 6.12952 12.0232
80 3 9.90622 5.84043 9.92387
2 1 0.157733 12.3241 13.1057
29 2 2.93726 10.6567 11.3378
35 2 0.666476 9.52822 12.4982
50 3 4.0909 10.6603 12.2983
87 3 2.02717 11.993 11.3837
91 3 1.98166 9.31317 11.5908
64 3 0.856513 10.7033 13.6275
74 3 6.19923 8.91675 9.57082
3 1 5.94288 10.8402 11.7672
6 1 8.04535 12.0526 10.7651
97 3 7.41784 11.6559 12.4269
70 3 12.7549 10.1204 11.2678
25 1 11.1368 11.0026 11.8993
49 3 10.0352 9.74945 11.5225
66 3 12.2403 12.5998 12.0054
84 3 9.82643 0.115782 12.0386
ITEM: TIMESTEP
1800
ITEM: NUMBER OF ATOMS
178
ITEM: BOX BOUNDS pp pp pp
0.0000000000000000e+00 1.3168533823700001e+01
0.0000000000000000e+00 1.3168533823700001e+01
0.0000000000000000e+00 3.5381309593600001e+01
ITEM: ATOMS id type x y z
143 6 4.00334 1.02343 1.08463
149 6 1.11612 1.80309 2.34842
163 7 3.76392 2.66493 3.33601
101 4 2.87149 3.55401 0.909878
104 4 8.08302 2.56019 1.19157
109 4 6.54382 3.57625 3.51102
147 6 6.01766 0.880971 3.34665
159 7 5.59267 2.97946 1.32124
127 5 10.6578 2.63019 1.76922
144 6 13.1588 3.93096 0.743298
151 6 11.9909 0.892297 3.54461
167 7 12.5998 0.241884 0.995313
148 6 9.77424 0.0847147 1.23758
105 4 2.0016 5.6278 0.247982
120 5 2.07145 7.50459 1.7736
142 6 4.00231 9.29025 0.257706
122 5 4.43328 5.44016 2.23425
102 4 5.92355 7.15524 0.843016
123 5 7.87731 5.07952 1.14574
145 6 8.353 8.17717 2.17589
165 7 4.70605 8.02555 2.93098
103 4 10.3448 4.77877 1.00423
124 5 12.9874 6.52658 2.14954
169 7 9.64209 6.25538 3.36464
108 4 3.2771 12.8695 3.34662
106 4 1.85702 12.5478 1.10581
128 5 2.87574 10.2375 2.44838
161 7 0.435053 9.14412 3.27404
141 6 0.134684 10.454 0.820013
113 4 0.57403 12.1116 3.38405
100 4 4.88998 11.7364 1.01752
107 4 6.42409 9.69676 1.61741
129 5 7.97681 11.3993 2.73707
166 7 7.03169 0.240734 0.988809
125 5 11.3115 8.1525 1.91347
115 4 11.4475 11.4156 2.54048
121 5 10.0439 10.11 1.13697
117 4 2.34574 3.37871 6.34104
126 5 1.62628 4.61477 3.22824
130 5 1.72554 0.869683 5.33832
177 7 0.0468839 2.95051 5.58344
131 5 4.80784 1.79652 5.85581
134 5 7.59768 2.33181 5.71888
171 7 8.87006 1.24201 3.41544
112 4 4.3878 4.92705 5.03613
139 6 9.49167 0.559944 6.9472
175 7 12.2238 0.294983 6.31122
178 7 10.4751 2.35976 5.12908
172 7 9.01414 3.9775 3.52688
136 5 2.78441 6.34414 6.95936
152 6 0.687981 5.58202 5.64405
153 6 1.13113 8.4609 6.40615
168 7 2.8664 7.11571 4.38661
110 4 6.72182 6.43132 3.53927
133 5 5.59656 7.28014 6.12587
156 6 7.52583 5.07639 5.77697
132 5 12.072 4.29828 3.36725
118 4 10.7389 8.73615 6.7488
137 5 10.7583 5.15417 5.7106
150 6 12.0073 7.63646 4.65643
173 7 8.78073 7.49003 5.54398
99 4 0.967771 11.854 7.10745
111 4 2.16991 10.9666 4.95312
164 7 3.89259 9.28597 5.13124
176 7 4.26118 12.3326 5.95811
114 4 5.30145 11.3069 3.59806
155 6 7.31364 12.7188 5.50734
162 7 5.98715 10.4872 6.49249
170 7 7.03612 9.10524 4.51874
116 4 10.1263 12.5146 4.56057
154 6 9.97271 9.59482 4.01523
157 6 12.4437 10.4687 5.48692
174 7 8.89814 10.6679 6.2703
32 2 2.92636 0.143782 7.63273
61 3 0.993179 3.71812 9.22951
68 3 2.57808 0.918071 9.04065
79 3 0.32309 0.908757 9.5642
140 6 0.903493 1.59157 7.82388
69 3 4.06806 3.60549 8.75679
23 1 7.50637 1.94001 8.87356
39 2 5.1244 2.79347 8.21977
76 3 5.38721 1.38264 9.05684
78 3 7.92722 0.0217789 8.88293
26 1 3.98269 1.42222 10.1727
30 2 11.5803 2.40927 7.29714
48 3 9.00779 3.12856 9.48645
67 3 11.2927 3.06676 8.71423
89 3 10.2244 0.224121 8.95733
160 7 9.38537 3.38659 7.39623
18 1 12.644 4.34925 7.94221
9 1 11.7173 1.17646 9.18045
22 1 10.774 3.75248 10.4264
10 1 2.77322 3.88342 10.0167
12 1 2.35688 7.41302 10.2891
38 2 0.450667 4.75116 10.3152
44 3 2.75838 5.71985 9.12518
54 3 0.506252 7.89644 9.6206
20 1 4.27906 5.46403 9.81787
56 3 3.22592 8.15508 8.29759
42 2 6.83116 5.37578 9.07377
45 3 8.25221 8.18417 9.51694
57 3 5.13744 5.96537 7.82312
82 3 6.40438 5.96663 10.4326
94 3 8.10153 5.79252 8.4299
158 6 7.66628 8.75891 7.59643
43 3 6.45634 3.84903 8.80168
27 1 9.68432 6.85812 8.88726
77 3 11.1645 8.10455 9.29973
92 3 12.6337 5.54997 9.29577
135 5 12.3868 7.16696 7.8522
19 1 0.179097 12.0088 10.0264
96 3 1.32556 10.8542 9.19111
138 5 3.39382 10.3943 7.73055
60 3 3.93937 10.4453 9.77405
119 5 5.69384 13.0075 7.78985
7 1 5.8187 10.2396 9.13339
31 2 7.68798 11.7342 8.25887
81 3 5.91407 11.9554 9.69863
98 3 8.48776 11.0645 9.30384
14 1 12.7861 9.73476 9.04698
15 1 9.90008 9.51552 9.39556
88 3 11.5709 11.0123 9.42992
146 6 10.8822 11.5439 7.54397
1 1 9.605 0.974778 10.4339
36 2 2.61741 2.22275 12.9455
59 3 1.59541 3.46901 13.1391
71 3 3.96484 2.04271 13.407
86 3 1.75924 0.771317 13.1163
93 3 2.79329 2.40666 11.2281
8 1 1.2141 1.02974 11.1971
41 2 6.77081 1.70846 12.1926
55 3 7.09217 0.81926 13.3571
63 3 5.55906 0.881953 11.5217
73 3 6.71669 3.23082 12.7037
95 3 7.98515 1.60267 11.0281
24 1 8.50778 3.53907 11.2888
13 1 4.31115 13.0607 12.9624
16 1 8.21668 12.8233 13.0773
21 1 13.0096 2.84651 12.623
40 2 11.2494 1.05818 12.347
47 3 10.9321 1.95284 10.9248
53 3 11.6894 1.98342 13.5019
58 3 12.5455 4.11469 11.1964
75 3 1.41517 5.48001 11.2843
17 1 1.764 5.45971 12.9918
37 2 4.20035 6.17918 12.5024
51 3 4.10043 4.59569 11.5345
52 3 0.798836 8.24698 12.4396
83 3 3.29749 6.0494 13.6101
11 1 7.24134 6.14253 12.259
34 2 5.56812 7.70363 10.419
46 3 5.61417 6.42046 12.9267
62 3 4.24528 7.0147 10.9837
85 3 6.25673 8.79395 11.392
28 1 8.38821 8.67096 11.3659
90 3 8.74875 6.76061 12.4003
4 1 4.81107 3.40878 12.589
5 1 12.5661 7.78038 11.2073
33 2 10.0143 5.91242 11.8623
65 3 9.78944 4.47152 12.4504
72 3 11.3648 6.56554 11.9462
80 3 9.85284 5.43271 10.109
2 1 1.51683 12.2034 12.7222
29 2 3.39279 10.8408 11.0765
35 2 1.11211 9.70848 12.1068
50 3 4.37587 11.5787 12.0471
87 3 2.39074 12.2659 11.0505
91 3 2.74428 9.41047 11.521
64 3 1.46957 10.4124 13.3212
74 3 5.56102 8.21641 9.10103
3 1 6.10867 10.2955 12.554
6 1 7.19083 12.7232 10.5114
97 3 7.45034 11.6961 11.9682
70 3 0.202886 10.6105 11.2989
25 1 11.0898 11.1544 11.2781
49 3 9.97963 9.53235 11.4399
66 3 12.1755 13.1225 11.7203
84 3 9.80326 0.496795 12.6405
ITEM: TIMESTEP
1900
ITEM: NUMBER OF ATOMS
178
ITEM: BOX BOUNDS pp pp pp
0.0000000000000000e+00 1.3168533823700001e+01
0.0000000000000000e+00 1.3168533823700001e+01
0.0000000000000000e+00 3.5381309593600001e+01
ITEM: ATOMS id type x y z
143 6 3.99609 1.17226 0.825306
149 6 1.28582 1.75384 2.27218
163 7 3.67382 2.49032 3.50187
101 4 2.69986 3.2148 0.874734
104 4 8.11682 2.57247 1.36135
109 4 6.36922 3.5667 3.57238
147 6 5.9026 0.776148 3.33261
159 7 5.62505 3.09103 1.20526
127 5 10.786 2.7435 1.57027
144 6 0.0595981 4.17205 0.791333
151 6 11.7367 1.23968 3.46736
167 7 12.4693 0.20927 0.966274
148 6 9.84614 12.9308 1.08848
105 4 2.35386 5.46689 0.413985
120 5 2.44175 7.51324 1.82509
142 6 4.27791 8.97527 0.364694
122 5 4.20907 5.19655 2.27725
102 4 5.54554 6.81202 0.740631
123 5 7.87581 5.33041 1.47715
145 6 8.24902 8.10321 2.30132
165 7 4.81603 8.12203 3.09389
103 4 10.7138 5.29752 1.18221
124 5 12.861 6.47292 2.23554
169 7 10.0885 6.45698 3.22257
108 4 3.28452 13.0415 3.00841
106 4 1.97972 12.3314 0.90456
128 5 2.90057 10.2519 2.57676
161 7 0.337117 9.25095 3.61784
141 6 0.381729 10.4175 1.26286
113 4 0.430445 12.236 3.48503
100 4 5.0595 11.8968 1.37291
107 4 6.44302 9.63827 1.42121
129 5 8.04597 11.4395 3.22608
166 7 7.0594 0.355304 1.03765
125 5 11.4354 8.56656 1.51478
115 4 11.4309 11.4564 2.51455
121 5 9.29322 10.1041 1.16989
117 4 2.55021 3.73956 6.15668
126 5 1.6945 4.54648 3.34781
130 5 1.80618 0.979893 5.09269
177 7 13.0934 2.97711 5.45262
131 5 4.84261 1.89007 5.69282
134 5 7.54524 2.35531 5.69911
171 7 8.66736 0.970096 3.31354
112 4 4.44739 4.82026 5.06089
139 6 9.3588 0.504632 7.03923
175 7 12.2349 0.355151 6.15643
178 7 10.2882 2.35693 5.39929
172 7 9.15901 3.98702 3.62272
136 5 2.96886 6.33261 6.93741
152 6 0.651534 5.76999 5.49787
153 6 1.20267 8.71175 6.04309
168 7 2.57838 6.96361 4.47009
110 4 6.9275 6.17829 3.55378
133 5 5.64466 7.09325 5.77109
156 6 7.91059 5.04907 5.71316
132 5 12.0374 4.5473 3.64133
118 4 10.8063 8.80467 6.814
137 5 10.6375 5.23477 6.03524
150 6 11.9223 7.37872 4.98727
173 7 8.9093 7.56724 5.47075
99 4 1.17041 11.8827 6.91056
111 4 2.01141 10.9929 4.72138
164 7 4.08234 9.17305 5.37683
176 7 4.05765 12.4079 5.89806
114 4 5.16768 11.1013 3.79029
155 6 7.23207 12.6111 5.52119
162 7 6.00632 10.4453 6.52399
170 7 6.87401 9.11788 4.53343
116 4 10.2292 12.2819 4.80528
154 6 10.3104 9.44096 4.02292
157 6 12.3544 10.6579 5.64534
174 7 8.83463 10.5202 6.16286
32 2 2.93341 0.514273 7.50605
61 3 0.867998 3.81435 8.98393
68 3 2.7142 0.852129 8.9867
79 3 0.224903 1.10534 9.74043
140 6 0.760322 1.49102 7.76544
69 3 3.81792 3.69287 9.04733
23 1 7.55961 2.43077 9.25721
39 2 5.10331 3.24206 8.4015
76 3 5.70237 1.88684 8.98467
78 3 8.13268 0.679914 8.7244
26 1 4.00873 1.62681 10.2616
30 2 11.7183 2.307 7.27631
48 3 9.17722 3.11649 9.40739
67 3 11.5576 2.90613 8.76488
89 3 10.2482 12.7817 9.6721
160 7 9.29008 3.61363 7.40893
18 1 12.582 4.21164 7.53066
9 1 11.5915 1.09821 9.55831
22 1 10.8464 3.94882 10.2072
10 1 2.22635 4.27809 9.8694
12 1 2.34987 7.85297 10.5055
38 2 13.125 4.41689 10.1653
44 3 2.72194 6.18465 9.16626
54 3 0.204864 7.9723 8.99946
20 1 4.18726 5.37316 9.59135
56 3 2.62039 8.15882 7.96241
42 2 6.54738 5.71414 8.41195
45 3 8.35917 7.91317 9.39271
57 3 5.16781 5.59706 7.71247
82 3 6.24169 6.61381 10.0029
94 3 8.06717 5.693 8.25931
158 6 7.63055 8.46569 7.45497
43 3 6.22636 4.13886 9.16849
27 1 9.80775 6.82216 8.79449
77 3 11.0637 7.93666 9.82146
92 3 12.5162 5.64055 9.33717
135 5 12.5818 6.95736 7.4108
19 1 0.608803 11.5865 9.91528
96 3 1.33165 10.4258 8.7685
138 5 3.23953 10.2011 7.43689
60 3 3.97719 10.7731 9.35486
119 5 6.00086 0.310861 7.68886
7 1 5.56129 10.5908 9.45689
31 2 7.72493 11.2422 8.11684
81 3 6.12308 12.4317 9.65556
98 3 7.81071 10.4452 9.5134
14 1 12.8801 9.48444 8.44934
15 1 10.2649 9.43772 9.79805
88 3 11.9046 10.5074 9.46442
146 6 11.0002 11.5485 7.68434
1 1 9.3678 1.20225 9.84372
36 2 1.8455 2.23964 12.8011
59 3 0.843071 3.45342 13.2598
71 3 3.16257 2.66311 13.4696
86 3 1.65865 0.466094 12.7191
93 3 2.12188 2.60236 11.1721
8 1 1.6495 0.878653 10.6533
41 2 6.77125 1.75621 12.1757
55 3 7.11485 1.07475 13.5472
63 3 5.24535 1.59044 11.8208
73 3 7.11697 3.17977 12.3011
95 3 7.91859 1.10897 11.3278
24 1 9.38383 3.00328 11.6714
13 1 3.44744 13.0104 12.923
16 1 8.5445 13.0887 13.0636
21 1 12.151 3.2392 13.2888
40 2 11.194 0.549407 12.308
47 3 10.554 1.64591 11.1003
53 3 11.6353 1.47223 13.3773
58 3 12.3592 3.68994 11.3213
75 3 1.07759 5.17339 11.0576
17 1 1.47005 5.08169 12.8369
37 2 4.42618 6.35652 12.1657
51 3 4.53579 4.92584 11.2754
52 3 0.69464 8.18754 12.1792
83 3 3.20551 6.13497 12.9251
11 1 7.38453 5.97256 11.9063
34 2 5.07508 7.92521 9.97729
46 3 5.94223 6.41406 12.699
62 3 4.13297 7.3666 11.0352
85 3 5.87615 9.0503 10.5839
28 1 8.25743 9.02178 11.2301
90 3 8.87384 7.09549 11.8309
4 1 4.70218 3.20083 12.5754
5 1 12.5258 7.28385 10.8575
33 2 10.0158 6.03095 11.7623
65 3 9.57086 4.65565 12.3571
72 3 11.4004 6.42 12.2091
80 3 9.98708 5.55998 10.1794
2 1 0.870392 11.9573 13.206
29 2 3.39633 11.307 10.8104
35 2 1.23444 9.71774 12.2222
50 3 4.42325 11.5237 11.8597
87 3 2.18029 12.2225 10.5997
91 3 2.73141 9.70667 11.1932
64 3 1.65012 10.3689 13.5047
74 3 4.64825 8.07624 8.43983
3 1 5.99605 10.7481 12.2099
6 1 7.64608 12.2975 10.4978
97 3 7.40598 11.5581 12.1715
70 3 0.257477 10.7235 11.7395
25 1 11.4934 10.7855 11.5345
49 3 9.6052 10.093 11.514
66 3 12.3785 12.7666 11.9022
84 3 10.1191 12.7497 12.6841
ITEM: TIMESTEP
2000
ITEM: NUMBER OF ATOMS
178
ITEM: BOX BOUNDS pp pp pp
0.0000000000000000e+00 1.3168533823700001e+01
0.0000000000000000e+00 1.3168533823700001e+01
0.0000000000000000e+00 3.5381309593600001e+01
ITEM: ATOMS id type x y z
143 6 4.10192 0.87655 0.482424
149 6 1.09472 1.58585 2.22692
163 7 3.7521 2.64626 3.07074
101 4 2.8034 3.21043 0.84027
126 5 1.59057 4.22706 3.23884
104 4 8.1184 2.54062 1.36566
147 6 5.79417 0.848613 3.25116
159 7 5.65359 2.75343 1.20241
166 7 7.20416 0.322183 0.88356
127 5 10.5333 2.61033 1.46155
144 6 13.1159 4.36228 1.00549
151 6 11.5357 1.26876 3.43033
167 7 12.4857 0.000457669 1.15472
148 6 9.69244 0.0101792 1.36693
132 5 11.979 4.15185 3.43381
105 4 2.27252 5.5759 1.01777
120 5 2.47193 7.78109 1.79032
122 5 4.37898 5.10294 2.74382
124 5 0.31598 6.79738 2.59104
102 4 5.61999 6.75605 1.05377
123 5 7.97525 5.08851 1.4937
145 6 8.10099 8.01315 2.146
165 7 5.09226 7.95793 3.16337
103 4 10.8055 5.18881 1.0438
169 7 10.0165 6.35851 3.19866
125 5 11.2499 8.42029 1.62645
108 4 3.29434 13.0645 3.35054
106 4 2.21504 12.5037 1.20921
128 5 3.21186 10.103 2.38261
161 7 0.215129 9.3824 3.53559
141 6 0.582482 10.521 1.38007
113 4 0.479798 12.2701 3.50156
142 6 4.52871 8.91831 0.411012
100 4 5.14821 11.8727 1.23528
107 4 6.40003 9.85748 1.4206
129 5 7.93267 11.5573 2.99453
115 4 11.2168 11.4327 2.57405
121 5 9.1455 10.3382 0.921683
117 4 2.50293 3.66829 6.01137
130 5 2.03564 1.00846 5.12101
109 4 6.66899 3.52273 3.70668
131 5 4.68304 1.96184 5.69484
134 5 7.31851 2.1523 5.92329
171 7 8.63426 1.20314 3.60312
177 7 13.1247 2.80394 5.38291
175 7 12.2051 0.191796 5.87634
178 7 10.1014 2.44733 5.51358
172 7 9.34833 3.98461 3.55681
136 5 2.93544 6.59543 6.76158
152 6 0.587607 5.60591 5.5832
153 6 1.18768 8.67985 6.15517
168 7 2.81328 7.01403 4.21936
112 4 4.67112 4.77265 4.99538
110 4 6.8969 6.21194 3.64098
133 5 5.72466 7.2497 6.04222
156 6 7.97898 4.95231 5.83272
137 5 10.8673 5.21141 5.98457
150 6 12.0612 7.6606 5.00362
173 7 9.02772 7.4652 5.32571
99 4 1.05739 12.1086 6.66681
111 4 2.27308 11.1443 4.99654
164 7 4.01212 9.12914 5.43405
176 7 4.285 12.4409 6.01333
114 4 5.30405 10.9288 3.77059
155 6 7.06957 12.4883 5.4724
162 7 5.92284 10.3773 6.65202
170 7 7.26002 9.31363 4.50602
118 4 10.7341 8.84132 6.77532
116 4 9.98364 12.5231 4.61343
154 6 10.1492 9.50256 3.81959
157 6 12.1115 10.6349 5.67592
174 7 9.2149 10.5293 5.971
32 2 3.05596 0.657203 7.51123
61 3 1.05332 3.3529 9.20061
68 3 2.98981 0.920546 9.02399
79 3 0.367614 0.596534 9.58081
140 6 0.771738 1.64634 7.60144
69 3 3.86723 3.91134 8.31375
26 1 4.20793 1.5631 9.96155
10 1 2.62808 4.08044 9.75279
38 2 0.225053 4.3293 10.126
23 1 7.26667 2.25749 9.43988
39 2 5.29588 3.40336 8.2317
76 3 5.51334 2.09233 9.0648
78 3 7.95548 0.680535 8.83062
119 5 6.05694 0.202162 7.76655
139 6 9.15743 0.209022 7.13691
30 2 11.3273 1.86972 7.29647
48 3 8.88488 3.09211 9.70917
67 3 11.2938 2.16293 8.8691
160 7 9.18225 3.43887 7.80811
18 1 12.238 3.64913 7.53822
9 1 11.7959 0.888797 10.0263
22 1 10.6643 4.05144 10.4757
1 1 9.2677 1.02012 10.2326
12 1 2.39482 7.93832 10.1268
44 3 2.65879 5.89112 8.76528
54 3 0.445941 7.66703 9.66699
20 1 4.3018 5.51183 9.63783
56 3 2.4873 8.20813 8.02934
62 3 4.08803 7.44874 10.5845
74 3 4.35738 8.77374 8.71736
42 2 6.56735 5.88591 8.46905
45 3 8.59171 8.51774 8.89176
57 3 5.13972 6.34301 8.04356
82 3 6.59509 7.28811 9.69142
94 3 8.00404 5.6481 8.49447
158 6 7.57221 8.49017 7.18723
43 3 6.10046 4.43096 9.11508
34 2 5.12689 8.09727 9.78082
27 1 9.76594 6.79017 8.19752
77 3 11.0885 8.00157 9.76138
92 3 12.4457 5.22089 9.19467
135 5 12.6464 6.87007 7.77596
80 3 9.80223 5.65252 9.93274
19 1 0.35466 12.026 9.66075
96 3 1.31114 10.657 8.96681
138 5 3.05187 10.6146 7.4927
60 3 3.53278 10.8933 9.82591
14 1 0.102509 9.3497 9.08354
7 1 5.77831 10.9401 9.43007
31 2 7.73754 11.1901 7.96483
81 3 5.52748 12.8145 9.7823
98 3 7.72842 11.4018 9.3943
85 3 5.77102 9.30776 10.4307
89 3 10.0162 12.4869 10.0557
15 1 10.191 9.58563 9.5872
88 3 11.6048 10.7466 9.46102
146 6 10.9938 11.8135 7.78936
36 2 1.96764 2.52285 13.0289
59 3 0.72746 3.26923 12.8506
71 3 3.2777 3.07596 13.6979
86 3 1.8216 0.975422 12.7275
93 3 2.88261 2.62569 11.0925
8 1 1.66374 1.34628 10.9165
13 1 4.16023 0.0700296 12.6895
41 2 6.27628 1.97371 12.1749
55 3 6.69061 1.21207 13.4816
63 3 4.89089 1.67801 11.7503
73 3 6.42733 3.48062 11.774
95 3 7.56305 1.45547 11.2255
24 1 8.60669 2.80264 11.8175
4 1 4.42411 3.61558 12.2904
21 1 12.2766 2.61085 12.6372
40 2 10.7862 0.361996 12.3177
47 3 10.3747 1.53396 11.4763
53 3 11.3604 1.16625 13.4396
58 3 12.2854 3.42286 11.0114
65 3 9.79244 4.35624 12.0622
75 3 1.10159 5.21162 10.8444
17 1 1.11838 6.18643 12.3149
37 2 3.97791 6.36502 11.9966
51 3 3.81631 4.88811 11.1688
52 3 0.776564 8.08421 12.3536
83 3 2.90661 6.41665 12.9789
11 1 7.12915 5.58422 11.1223
46 3 5.59969 6.17888 12.3734
28 1 8.35232 8.24642 10.9803
90 3 8.50786 6.67407 11.7601
5 1 12.2029 7.8931 11.2159
33 2 9.89497 5.75357 11.4913
72 3 11.2438 6.40964 12.0361
2 1 0.740654 11.9792 12.4822
29 2 2.80284 11.16 11.0276
35 2 1.15613 9.5392 11.9155
50 3 3.99892 11.6352 12.0553
87 3 1.72293 12.2789 11.0821
91 3 2.44274 9.57761 11.0272
64 3 1.54765 10.4658 12.9736
16 1 7.85035 12.7643 13.3424
3 1 5.42455 10.7851 11.681
6 1 8.40669 11.5173 11.0146
97 3 7.00545 11.6395 12.3493
70 3 13.0514 10.3439 11.3705
25 1 11.4942 11.4536 11.2843
49 3 9.24783 9.77184 11.0433
66 3 12.3048 13.1182 11.7342
84 3 9.74751 12.3097 12.4125
ITEM: TIMESTEP
2100
ITEM: NUMBER OF ATOMS
178
ITEM: BOX BOUNDS pp pp pp
0.0000000000000000e+00 1.3168533823700001e+01
0.0000000000000000e+00 1.3168533823700001e+01
0.0000000000000000e+00 3.5381309593600001e+01
ITEM: ATOMS id type x y z
143 6 3.9937 0.904631 0.664985
149 6 1.05898 1.90264 2.26301
163 7 3.72472 2.48395 3.05852
101 4 2.6943 3.32003 0.759762
126 5 1.97733 4.26998 3.73374
104 4 8.15828 2.50263 1.20174
147 6 6.12305 0.701286 3.15954
159 7 5.55941 2.88371 1.01721
166 7 7.08219 0.150322 0.80041
127 5 10.7662 2.88847 1.44455
144 6 0.110695 4.34983 0.776976
151 6 11.5396 1.31134 3.53338
167 7 12.5189 13.0514 1.16158
148 6 9.76554 0.141999 1.43855
132 5 12.1821 4.35015 3.54065
105 4 2.19479 5.65273 1.48788
120 5 2.79818 7.94716 1.70235
122 5 4.62693 5.2936 2.25894
124 5 13.1106 6.46588 2.79337
102 4 6.12016 6.90116 0.939433
123 5 7.81698 5.00699 1.31736
145 6 8.23881 7.89842 1.87029
165 7 5.16684 8.05958 3.23425
103 4 10.5734 5.15915 1.08264
169 7 9.98746 6.35302 3.15152
125 5 11.1613 8.0466 1.72048
108 4 3.56675 12.9981 3.30932
106 4 1.95392 12.6193 1.30057
128 5 3.00883 10.1821 2.51963
161 7 0.430325 9.33698 3.46372
141 6 0.524021 10.5675 0.957371
113 4 0.491465 12.428 3.66037
142 6 4.6448 9.02339 0.19318
100 4 5.11677 11.5659 1.13342
107 4 6.66723 9.78301 1.66871
129 5 7.95472 11.6857 2.69102
115 4 11.4551 11.1634 2.59424
121 5 9.82325 10.2243 0.976863
117 4 2.39575 3.50544 6.08233
130 5 1.92811 0.99246 5.15928
109 4 6.35557 3.5763 3.48312
131 5 4.74893 1.78749 5.34219
134 5 7.12612 2.32575 6.20809
171 7 8.46954 1.51392 3.66653
177 7 12.9808 2.74571 5.47293
175 7 12.1076 0.332329 6.02853
178 7 10.2165 2.41159 5.7596
172 7 9.22607 3.92475 3.54647
136 5 2.99807 6.43378 6.68995
152 6 0.615498 5.63769 5.72148
153 6 1.12526 8.59133 6.24198
168 7 2.78531 6.9588 4.12975
112 4 4.89177 4.79856 5.39538
110 4 7.14097 6.2089 3.76943
133 5 5.78991 7.18763 5.75386
156 6 8.00593 4.66744 6.01594
137 5 10.7361 5.10351 5.73794
150 6 11.9418 7.59715 4.83522
173 7 9.06907 7.33108 5.45751
99 4 1.02202 11.9425 6.63801
111 4 2.2305 11.0441 4.98262
164 7 3.93533 9.16781 5.33696
176 7 4.24905 12.3333 6.0962
114 4 5.31132 11.2285 3.90552
155 6 7.13691 12.4714 5.44787
162 7 5.88434 10.2453 6.55686
170 7 7.20315 9.29466 4.50782
118 4 10.7263 8.65466 6.89255
116 4 10.0446 12.5063 4.49377
154 6 9.81196 9.47622 3.60719
157 6 12.2244 10.5427 5.47705
174 7 9.09768 10.8331 6.30331
32 2 2.893 0.0999508 7.66758
61 3 0.855455 3.32141 8.97546
68 3 2.62408 0.723042 9.01533
79 3 0.220704 0.716326 9.59035
140 6 0.795536 1.49942 7.64182
69 3 3.71932 4.39399 8.02122
26 1 3.94893 1.45949 10.3042
10 1 2.31584 4.34252 9.69676
38 2 0.19255 3.93412 10.2302
23 1 6.69369 2.88932 9.98665
39 2 4.53651 3.09696 7.66515
76 3 5.01708 2.46051 8.97017
78 3 7.822 0.867718 8.91001
119 5 6.0233 13.1343 7.84509
139 6 9.00421 0.46854 7.02286
30 2 11.6067 1.8784 7.69148
48 3 8.50929 3.20293 9.84251
67 3 11.0807 2.46885 9.00813
160 7 9.18323 3.20562 7.80326
18 1 12.1526 4.12646 7.8261
9 1 11.6745 1.14011 10.0756
22 1 10.6949 3.65544 10.4974
1 1 9.00833 0.951698 10.1607
12 1 1.9957 8.12327 10.0253
44 3 2.31594 6.16141 8.66185
54 3 0.405903 7.63765 9.72254
20 1 3.94609 5.88132 8.99915
56 3 2.42523 8.51756 8.20648
62 3 3.96296 7.66166 10.5253
74 3 4.90309 9.2525 9.09071
42 2 6.22875 6.35736 9.03544
45 3 8.36234 8.25416 9.19301
57 3 5.11611 6.83552 8.05923
82 3 6.3002 7.23049 10.2847
94 3 7.51129 6.16816 8.22227
158 6 8.07612 8.89134 7.35484
43 3 5.87 4.99828 9.65567
34 2 5.39821 8.48024 10.1986
27 1 9.65852 6.41202 8.32165
77 3 11.3775 8.24394 9.08518
92 3 12.2542 4.84811 9.38548
135 5 12.5072 7.00468 7.63812
80 3 10.0158 5.47725 9.814
19 1 0.402678 12.0295 9.69298
96 3 1.03675 10.7043 8.60761
138 5 3.19356 10.4935 7.60029
60 3 3.43958 11.0124 9.78084
14 1 12.7312 9.45827 8.84838
7 1 5.42946 11.1576 9.99502
31 2 7.51346 11.197 8.02751
81 3 5.54748 0.00615624 9.81218
98 3 7.4651 11.1497 9.58918
85 3 5.91028 9.10388 11.6148
89 3 10.3305 13.098 9.38457
15 1 9.89849 9.56893 9.32896
88 3 11.5121 10.866 9.37119
146 6 11.0516 11.9056 7.54433
36 2 2.37665 2.32173 12.8721
59 3 1.23968 3.11637 13.4924
71 3 3.70814 3.00883 13.032
86 3 2.14751 0.703491 12.9338
93 3 2.27812 2.52184 10.9802
8 1 1.2978 0.824094 11.0654
13 1 4.03645 12.8192 12.749
41 2 6.31297 1.75409 12.3961
55 3 6.90305 1.58668 13.8624
63 3 4.87526 1.03948 11.9579
73 3 6.15779 3.19937 11.8204
95 3 7.49797 1.34446 11.4632
24 1 8.82839 2.79522 12.073
4 1 4.60158 4.19114 11.8356
21 1 12.3484 2.73079 12.9215
40 2 10.7984 0.630529 12.723
47 3 10.5398 1.71634 11.4256
53 3 11.5404 1.53633 13.7076
58 3 12.6 2.94004 11.0494
65 3 10.0763 4.28667 12.0769
75 3 0.890737 4.87591 11.0393
17 1 1.20422 6.16228 12.4061
37 2 3.97221 6.61434 11.7506
51 3 3.73695 4.94985 10.5242
52 3 0.540505 8.01029 12.7716
83 3 2.78496 6.71293 12.4867
11 1 6.89994 5.64949 11.2991
46 3 5.30984 5.96725 12.2829
28 1 8.04431 8.36161 10.9835
90 3 8.58193 6.31937 11.3705
5 1 12.1956 7.91938 11.0234
33 2 10.0303 5.75425 11.4007
72 3 11.0514 6.68261 11.7955
2 1 0.31606 12.1841 12.7962
29 2 2.62045 11.0186 11.1618
35 2 0.685529 9.4593 12.2103
50 3 3.61181 11.1546 12.4907
87 3 1.44994 12.1178 11.1256
91 3 1.99225 9.53605 11.3733
64 3 0.432033 10.7271 13.2194
16 1 7.56376 0.0621306 13.091
3 1 5.59691 10.3867 12.5294
6 1 7.83625 11.1301 11.4264
97 3 6.75719 11.8206 12.3416
70 3 12.7401 9.81811 11.108
25 1 11.5477 11.2922 11.1586
49 3 9.25739 9.87711 10.9949
66 3 11.7716 12.6976 12.2702
84 3 9.34073 0.00706863 12.9971
ITEM: TIMESTEP
2200
ITEM: NUMBER OF ATOMS
178
ITEM: BOX BOUNDS pp pp pp
0.0000000000000000e+00 1.3168533823700001e+01
0.0000000000000000e+00 1.3168533823700001e+01
0.0000000000000000e+00 3.5381309593600001e+01
ITEM: ATOMS id type x y z
143 6 3.81908 1.06492 0.869021
149 6 1.0145 2.01741 2.45284
163 7 3.8777 2.57848 3.2382
101 4 2.94338 3.50757 1.00463
126 5 1.93607 4.43152 3.92654
104 4 8.15328 2.32947 1.25957
147 6 5.87735 0.796397 2.89944
159 7 5.64925 2.89762 0.991601
166 7 7.0456 0.345442 0.591846
127 5 10.7239 2.85449 1.71708
144 6 0.0231654 4.19601 0.739942
151 6 11.7161 1.32212 3.57427
167 7 12.4451 0.245571 1.11755
148 6 9.9056 0.119424 1.38857
132 5 12.1218 4.42619 3.47884
105 4 2.10061 5.46048 1.40491
120 5 2.92659 7.70919 1.52629
122 5 4.54452 5.33514 2.28052
124 5 0.0994268 6.60457 2.40293
102 4 6.13799 7.29652 0.832748
123 5 7.80524 4.98699 1.4166
145 6 8.63906 7.78032 1.76943
165 7 5.03605 8.24883 2.90656
103 4 10.6341 5.40034 1.03911
169 7 9.93291 6.15775 3.34833
125 5 11.7006 8.32786 1.71954
108 4 3.2861 12.9724 3.33139
106 4 1.76489 12.6498 1.16286
128 5 2.87772 10.3679 2.29185
161 7 0.796016 9.03014 3.37115
141 6 0.262851 10.4932 1.02672
113 4 0.493499 12.0688 3.49341
142 6 4.71584 9.29021 0.347204
100 4 5.00393 11.9824 1.33608
107 4 7.094 9.85255 1.50308
129 5 8.13186 11.6266 2.96546
115 4 11.4395 11.3741 2.60135
121 5 9.98015 9.95286 1.17456
117 4 2.56189 3.31774 6.29824
130 5 1.77455 0.994945 5.18757
109 4 6.64419 3.33284 3.49578
131 5 4.7277 1.45415 5.47573
134 5 7.34065 2.20183 5.64438
171 7 8.75161 1.11103 3.59632
177 7 0.0137974 2.9944 5.66273
175 7 12.2885 0.294654 6.01168
178 7 10.1077 2.48975 5.38666
172 7 9.1832 3.98429 3.58942
136 5 3.14362 6.31932 6.64227
152 6 0.558078 5.75303 5.65357
153 6 1.13087 8.5647 6.04121
168 7 2.65099 7.01426 4.31679
112 4 4.59385 4.54328 4.83514
110 4 6.85693 6.30658 3.62163
133 5 5.83894 7.32823 6.18093
156 6 7.89353 4.85435 5.66399
137 5 10.7784 5.06767 6.07286
150 6 11.8635 7.51488 4.71375
173 7 8.90595 7.36945 5.61526
99 4 0.958154 11.7104 6.95551
111 4 2.03601 10.9198 4.75716
164 7 3.95106 9.06716 5.20572
176 7 3.98229 12.0933 6.16147
114 4 5.22379 10.9111 3.68621
155 6 7.08182 12.5443 5.28745
162 7 6.08519 10.335 6.63423
170 7 7.20962 9.17513 4.5053
118 4 10.8538 9.01593 6.62617
116 4 10.2163 12.4599 4.60495
154 6 9.93416 9.49535 4.02754
157 6 12.1667 10.5372 5.38052
174 7 9.0406 10.7869 6.1013
32 2 2.96517 0.0898047 7.83546
61 3 1.07786 3.34245 9.17107
68 3 2.6319 0.831991 9.22996
79 3 13.158 0.757993 9.70584
140 6 0.79647 1.20572 7.87585
69 3 3.81585 4.06989 8.13518
26 1 4.35448 1.3534 9.91861
10 1 2.45475 4.40514 10.0248
38 2 0.161416 4.11916 10.2211
23 1 6.82715 3.63707 9.97866
39 2 4.9441 3.11155 7.84656
76 3 5.50786 2.40947 9.12047
78 3 7.49688 0.345505 8.7527
119 5 5.78741 0.32314 7.59308
139 6 9.1911 0.449474 7.0359
30 2 11.4043 2.24368 7.30708
48 3 8.45717 2.79864 9.80163
67 3 11.6545 2.66881 8.78835
160 7 9.10323 3.28145 7.79739
18 1 12.4459 4.09074 7.75038
9 1 11.4573 0.967621 10.0735
22 1 11.0575 4.54621 10.4249
1 1 8.4797 0.815729 10.1033
12 1 2.1968 7.73621 9.76756
44 3 2.32167 5.80614 8.79425
54 3 0.507337 7.57603 9.09638
20 1 4.25581 5.43994 9.3607
56 3 3.01865 8.08979 8.03382
62 3 3.87013 7.5605 10.8542
74 3 5.51374 9.48092 9.39664
42 2 6.31003 6.54788 8.7756
45 3 8.50761 8.66489 9.63931
57 3 4.90381 6.71125 8.01734
82 3 6.3376 7.14562 10.211
94 3 7.66163 6.79495 8.19942
158 6 8.02212 8.82771 7.68999
43 3 6.00157 5.09089 9.34529
34 2 5.34103 8.44537 10.6234
27 1 9.59862 6.85237 8.29768
77 3 11.4383 8.09211 8.99798
92 3 12.4671 5.17976 9.44019
135 5 12.2475 6.83723 7.49614
80 3 9.14825 5.64578 9.67999
19 1 13.1218 11.6034 10.0142
96 3 0.93001 10.349 9.12295
138 5 3.15567 10.0819 7.49788
60 3 3.34022 10.9461 9.97787
14 1 12.589 9.30127 8.53728
7 1 4.95546 11.0527 9.11499
31 2 7.70194 11.4834 8.01932
81 3 5.20488 12.8499 9.61692
98 3 7.88825 11.3847 9.53501
85 3 5.97256 9.00463 11.9301
89 3 9.93257 0.357832 8.91465
15 1 10.3949 10.0089 10.1819
88 3 11.3593 11.5426 9.69053
146 6 10.9953 11.7871 7.68735
36 2 2.2449 2.35923 12.9042
59 3 1.07484 3.1223 13.3719
71 3 3.41465 2.99613 13.4382
86 3 2.27563 0.68949 13.0333
93 3 2.4158 2.52848 11.3159
8 1 1.74963 0.656149 11.1392
13 1 4.06637 0.222232 13.1269
41 2 6.28743 1.7369 12.2675
55 3 6.59842 1.94837 13.6913
63 3 5.07055 1.06625 11.7353
73 3 6.31634 3.43374 11.686
95 3 7.42416 0.899753 11.6166
24 1 8.88081 2.77223 11.8227
4 1 4.40983 3.81705 12.2727
21 1 12.6272 3.05321 12.9798
40 2 10.6855 0.636869 12.5447
47 3 9.86517 1.35883 11.3293
53 3 11.4261 1.67534 13.2456
58 3 12.2407 3.29324 11.0864
65 3 9.85699 4.21972 11.926
75 3 0.873951 5.05102 11.2607
17 1 0.975421 6.37135 12.6829
37 2 3.84051 6.57 12.1124
51 3 3.73202 5.10837 11.2436
52 3 12.9191 7.71789 12.27
83 3 2.83036 6.75243 13.0208
11 1 6.5673 5.62452 11.9821
46 3 5.25024 6.22669 12.5959
28 1 8.68969 8.23277 11.3821
90 3 8.23086 6.29189 12.0332
5 1 11.8811 7.66567 10.7653
33 2 9.39513 5.54143 11.293
72 3 10.6246 6.59671 11.178
2 1 1.04257 12.1162 13.2091
29 2 2.47605 10.8466 11.1945
35 2 0.176762 9.1759 12.1561
50 3 3.42306 11.4267 12.3507
87 3 1.28284 11.8889 11.3301
91 3 1.7322 9.45284 11.585
64 3 13.0587 10.3896 13.2499
16 1 7.9694 0.125746 13.5111
3 1 5.02927 10.5765 12.9516
6 1 6.37765 12.3934 10.9563
97 3 6.53141 12.1177 13.2516
70 3 12.3003 9.77197 10.913
25 1 11.436 10.8109 12.1477
49 3 9.90497 10.2044 11.9565
66 3 11.7327 12.796 11.7605
84 3 9.67192 0.057986 13.5806
ITEM: TIMESTEP
2300
ITEM: NUMBER OF ATOMS
178
ITEM: BOX BOUNDS pp pp pp
0.0000000000000000e+00 1.3168533823700001e+01
0.0000000000000000e+00 1.3168533823700001e+01
0.0000000000000000e+00 3.5381309593600001e+01
ITEM: ATOMS id type x y z
143 6 3.53137 1.08935 0.707713
149 6 1.3348 1.8665 2.51209
163 7 3.86766 2.73576 3.31597
101 4 2.93347 3.45668 0.98874
126 5 1.94895 4.34876 3.63899
104 4 8.14154 2.47557 1.25876
147 6 6.0326 0.796335 3.06251
159 7 5.65479 2.85699 1.13272
166 7 7.21538 0.308722 0.641009
127 5 10.7092 2.60645 1.74191
144 6 12.7533 3.91701 0.94791
151 6 11.9689 1.24314 3.60101
167 7 12.6122 0.59873 1.06467
148 6 9.7839 13.1623 1.0669
132 5 12.1435 4.28553 3.60676
105 4 1.9875 5.37156 1.28004
120 5 2.70747 7.75048 1.44896
122 5 4.53647 5.38821 2.28343
124 5 0.216022 6.50534 2.45902
102 4 6.29855 7.12086 1.00466
123 5 7.90814 5.10826 1.36847
145 6 8.7741 7.66467 1.83008
165 7 4.99783 8.28669 2.87281
103 4 10.7232 5.56519 1.32927
169 7 9.82829 6.26772 3.65978
125 5 11.571 8.42599 2.02268
108 4 3.33666 12.9978 3.29455
106 4 1.76984 12.6474 1.06691
128 5 2.8952 10.4943 2.30833
161 7 0.89587 9.04928 3.34221
141 6 0.037357 10.6675 1.26701
113 4 0.508349 12.3226 3.33264
142 6 4.80154 9.89992 0.55775
100 4 5.31983 12.1346 1.13161
107 4 7.08429 9.55047 1.39651
129 5 8.05991 11.5853 2.95391
115 4 11.1154 11.7856 2.62774
121 5 9.67676 10.0352 0.972349
117 4 2.69674 3.33385 6.37649
130 5 1.87666 0.619102 5.392
109 4 6.38972 3.66382 3.53524
131 5 4.67041 1.48826 5.48829
134 5 7.44943 2.24152 5.64809
171 7 8.76143 0.991085 3.32811
177 7 0.117021 2.89134 5.67588
175 7 12.3748 0.142085 6.0313
178 7 10.473 2.41622 5.37459
172 7 9.08796 3.78948 3.45371
136 5 2.87268 5.98004 6.82247
152 6 0.638718 5.6656 5.66648
153 6 1.09051 8.45875 6.11739
168 7 2.80947 6.94974 3.87871
112 4 4.77213 4.97789 5.27785
110 4 7.02532 6.37203 3.57045
133 5 5.81967 7.31368 5.87761
156 6 7.76717 5.0171 5.70199
137 5 10.685 5.06099 5.98176
150 6 11.8813 7.61877 4.87093
173 7 8.94654 7.61477 5.77262
99 4 0.966934 11.6481 6.83003
111 4 2.12515 10.8685 4.91928
164 7 4.03699 9.12986 5.16507
176 7 4.12301 11.947 6.12802
114 4 5.22661 11.1931 3.52481
155 6 6.8583 12.5861 5.4132
162 7 6.00501 10.403 6.49552
170 7 7.18865 9.21103 4.38018
118 4 10.4547 8.82202 7.00165
116 4 10.0942 12.3442 4.76518
154 6 10.1285 9.3456 3.86858
157 6 12.3173 10.5155 5.49702
174 7 8.81348 10.6214 6.17153
32 2 2.73666 0.0742252 7.64914
61 3 0.723602 3.61869 9.52732
68 3 2.72137 0.59659 9.28945
79 3 0.0319606 0.706873 9.81794
140 6 0.649603 1.21174 7.84568
69 3 4.29288 3.94739 8.1564
26 1 4.39982 1.4151 10.0533
10 1 2.29635 4.13472 10.166
38 2 12.9733 4.73851 10.4167
23 1 7.30994 3.07592 9.84325
39 2 5.32494 2.95407 7.51596
76 3 6.19076 2.15295 8.48931
78 3 7.60932 0.067027 8.35121
119 5 5.62775 0.207411 7.57376
139 6 9.42294 0.417434 6.76084
30 2 11.7725 2.16274 7.42562
48 3 9.09507 2.51588 9.30285
67 3 11.3375 2.85385 8.82322
160 7 8.96742 3.44994 7.3269
18 1 12.4237 4.12407 8.05252
9 1 11.4056 1.02073 9.65875
22 1 10.4533 4.34555 10.0249
1 1 8.73741 0.501202 9.93164
12 1 2.04721 7.27406 9.92646
44 3 2.72811 5.50066 8.97764
54 3 0.39412 7.75808 9.21097
20 1 4.64422 5.09978 9.50856
56 3 2.74729 7.77022 8.02831
62 3 3.68805 7.47421 11.0845
74 3 5.1758 8.78854 9.32142
42 2 6.44352 6.44535 9.28335
45 3 8.51561 9.02505 9.96549
57 3 5.27081 6.51936 8.12778
82 3 5.9857 6.68106 10.5641
94 3 7.60762 7.25904 8.87382
158 6 7.64925 9.0366 7.74937
43 3 6.54299 4.79012 9.43876
34 2 4.89684 8.31059 10.6546
27 1 8.93268 6.28814 8.18561
77 3 11.0084 7.89095 8.97805
92 3 12.271 5.45549 9.32734
135 5 12.258 6.93692 7.56473
80 3 8.88176 5.30149 9.89734
19 1 12.9611 11.7639 10.1676
96 3 0.849969 10.9142 8.7979
138 5 2.9258 9.75259 7.64938
60 3 3.44303 10.3076 9.78518
14 1 12.6485 9.5051 8.81671
7 1 4.95791 11.0479 9.17617
31 2 7.75959 11.6247 8.1067
81 3 5.24057 12.5781 9.71781
98 3 7.68199 11.4602 9.81603
85 3 5.71632 9.01692 11.6632
89 3 10.1975 0.291523 8.77476
15 1 9.62091 10.5187 10.4326
88 3 11.1153 11.3443 9.6793
146 6 11.0775 11.5908 7.57024
36 2 2.26047 2.24084 12.8106
59 3 0.962484 3.00324 13.0195
71 3 3.30791 2.59772 13.8023
86 3 2.00782 0.513802 12.9067
93 3 2.74535 2.49138 11.3466
8 1 1.56122 0.656504 10.8124
13 1 3.78731 0.0457019 12.715
41 2 6.59829 2.11612 12.2597
55 3 6.83021 1.58751 13.5943
63 3 5.14656 1.49702 11.7921
73 3 6.48995 3.66514 11.9051
95 3 7.59903 1.46466 11.0675
24 1 9.18766 2.67558 11.326
4 1 4.31697 3.2674 12.1491
21 1 12.4442 3.04847 12.7674
40 2 10.6789 0.570616 12.7859
47 3 10.487 1.33541 11.4593
53 3 11.1828 1.56207 13.763
58 3 12.0086 4.07123 11.4336
65 3 9.38624 4.2959 12.3551
75 3 0.934904 5.58913 10.8779
17 1 0.933685 6.47972 12.648
37 2 3.91536 6.32451 12.3858
51 3 4.14524 4.89319 11.5407
52 3 0.0783517 7.93264 12.2285
83 3 2.76634 6.49588 13.2683
11 1 6.67571 5.48232 12.3488
46 3 5.2645 6.52428 13.1841
28 1 8.17772 8.75133 11.7385
90 3 8.28205 6.815 12.0246
5 1 11.8739 7.67991 10.6053
33 2 9.27559 5.69878 11.51
72 3 10.5347 6.28656 11.092
2 1 0.545016 12.436 12.5004
29 2 2.55027 10.6999 10.9183
35 2 0.452059 9.37181 12.0003
50 3 3.65363 11.1554 11.9957
87 3 1.77199 12.0631 11.0495
91 3 1.94184 9.39894 11.333
64 3 0.18666 10.4347 12.8887
16 1 7.75629 13.0094 13.3154
3 1 4.76907 10.2437 13.0663
6 1 6.34467 12.7703 10.9897
97 3 5.97928 12.4792 12.5776
70 3 12.9366 9.69631 10.6579
25 1 11.2275 10.8423 12.8049
49 3 9.64413 10.0025 12.2666
66 3 11.8593 12.6212 12.5342
84 3 9.60297 12.854 12.9986
ITEM: TIMESTEP
2400
ITEM: NUMBER OF ATOMS
178
ITEM: BOX BOUNDS pp pp pp
0.0000000000000000e+00 1.3168533823700001e+01
0.0000000000000000e+00 1.3168533823700001e+01
0.0000000000000000e+00 3.5381309593600001e+01
ITEM: ATOMS id type x y z
143 6 3.9 1.09831 0.69283
149 6 1.40961 1.79385 2.58076
163 7 3.85219 2.66347 3.27288
101 4 2.62006 3.49805 0.876821
126 5 2.03224 4.40272 3.75243
104 4 7.99246 2.68455 1.19367
147 6 6.18536 1.01242 3.06514
159 7 5.45306 2.84268 0.995084
166 7 7.51982 0.343321 0.828427
127 5 10.3313 2.53833 1.67119
144 6 13.0178 3.68024 1.31059
151 6 11.9736 1.09182 3.48125
167 7 12.6537 0.565469 0.90049
148 6 9.94153 13.1649 0.638436
132 5 11.9104 4.26431 3.80248
105 4 1.74478 5.78786 1.18307
120 5 2.67999 7.90983 1.43722
122 5 4.51371 5.33087 2.09897
124 5 13.1098 6.31867 2.96121
102 4 6.00733 7.00463 0.836868
123 5 7.86543 5.07936 1.46349
145 6 8.84876 7.75013 1.69946
165 7 4.86647 8.21318 2.90454
103 4 10.6181 5.29551 1.60107
169 7 9.85818 6.3278 3.78283
125 5 11.4467 8.30531 2.01251
108 4 3.64038 13.0638 3.32655
106 4 1.92126 12.4728 1.07324
128 5 2.92094 10.4015 2.36899
161 7 0.722288 9.11488 3.5493
141 6 0.00690529 10.7678 1.25746
113 4 0.533316 12.2094 3.57075
142 6 4.78543 9.80844 0.611981
100 4 5.1925 12.0922 1.30686
107 4 7.01677 9.64882 1.45082
129 5 7.90043 11.7882 2.75819
115 4 11.1997 11.8476 2.36404
121 5 9.83225 10.2439 1.18173
117 4 2.65909 3.32277 6.26068
130 5 2.04893 0.892272 5.24718
109 4 6.35862 3.8874 3.45051
131 5 4.97728 1.65698 5.61558
134 5 7.45685 2.25803 5.53363
171 7 8.98787 1.14505 3.45501
177 7 0.238527 2.58109 5.55854
175 7 12.1775 0.0582023 6.09433
178 7 10.3886 2.19534 5.25608
172 7 9.09427 3.94056 3.85552
136 5 3.0192 6.09359 6.85222
152 6 0.516063 5.55416 5.6283
153 6 1.36624 8.26514 6.11027
168 7 2.86144 6.92379 4.18196
112 4 4.70297 4.63032 5.19111
110 4 6.90767 6.53353 3.49615
133 5 5.75164 7.49622 5.87327
156 6 7.73677 5.14898 5.88514
137 5 10.6953 5.13529 6.22723
150 6 11.8498 7.57174 5.11997
173 7 8.737 7.73152 5.91978
99 4 1.19836 11.6438 6.88311
111 4 2.08044 11.1243 4.94082
164 7 3.77266 9.16967 5.08128
176 7 4.05335 12.1852 6.01147
114 4 5.37242 10.9955 3.57139
155 6 7.16675 12.5623 5.33838
162 7 5.83174 10.2248 6.36718
170 7 7.13944 9.3243 4.18406
118 4 10.5766 9.03905 7.26181
116 4 10.1618 12.2853 4.71477
154 6 9.75395 9.67962 3.84391
157 6 12.2331 10.2663 5.30862
174 7 8.82124 10.6114 6.26291
32 2 3.04967 0.704902 7.50368
61 3 0.978355 3.79909 9.1631
68 3 2.7676 1.14869 9.06136
79 3 0.0471551 0.897255 9.78254
140 6 0.83237 1.32212 7.76258
69 3 4.14909 3.80158 8.45707
26 1 3.62358 2.59946 9.8583
10 1 2.54243 4.7343 10.4679
38 2 0.103153 4.63004 10.1939
23 1 7.5514 3.43055 9.86487
39 2 5.68947 3.26202 7.81188
76 3 5.91212 2.13166 8.83353
78 3 7.831 0.595253 8.52406
119 5 5.82593 12.9438 7.84336
139 6 9.28749 0.449116 6.86755
30 2 11.528 2.24687 7.14412
48 3 9.04299 3.3567 9.16946
67 3 11.684 2.67071 8.64064
160 7 9.16362 3.17237 7.13968
18 1 12.9278 4.02751 7.70348
9 1 11.5975 0.945032 8.99787
22 1 10.5214 3.445 10.3135
1 1 8.95488 1.45669 9.75422
12 1 2.0328 7.42706 10.0186
44 3 2.6519 5.85997 8.97003
54 3 0.352433 7.74896 9.35851
20 1 4.34343 5.18901 9.51665
56 3 2.85211 8.20256 8.12769
62 3 3.49313 7.22165 11.0376
74 3 4.90302 8.4564 8.85349
42 2 6.61111 6.03423 8.41918
45 3 7.94766 9.37849 9.83082
57 3 5.16746 6.29316 7.76785
82 3 5.7897 6.21982 10.1723
94 3 7.77912 6.88273 8.81255
158 6 7.41815 8.91114 7.86002
43 3 6.58468 4.42358 8.60643
34 2 5.11722 7.80879 10.1519
27 1 9.66316 6.8797 8.53083
77 3 10.6091 8.10057 9.2627
92 3 12.4606 5.57755 9.33373
135 5 12.3362 7.08372 7.64944
80 3 10.1152 5.67231 10.0894
19 1 12.7736 11.2394 9.97165
96 3 0.729872 10.8395 8.74291
138 5 3.35448 10.1136 7.50573
60 3 3.20856 10.6107 9.57734
14 1 12.9545 9.48507 8.66319
7 1 5.22132 10.8712 9.59427
31 2 7.72687 11.5014 8.06788
81 3 5.20335 12.9731 10.096
98 3 7.01975 11.601 9.33473
85 3 5.77249 8.57389 11.1738
89 3 10.1241 0.0990244 9.06955
15 1 9.36917 10.6162 9.97915
88 3 11.144 11.069 9.50861
146 6 10.9611 11.4807 7.47741
36 2 2.08115 2.10515 12.453
59 3 0.684099 2.50519 13.0816
71 3 3.35321 2.38381 13.2927
86 3 1.87834 0.475009 12.2616
93 3 2.32232 2.67036 10.9633
8 1 1.4431 0.270609 10.3961
13 1 4.18715 0.342211 11.5534
41 2 6.74387 2.40502 11.9894
55 3 7.49729 1.70581 13.3006
63 3 5.27217 1.83464 11.9078
73 3 6.31347 3.91981 12.0857
95 3 7.76438 1.89913 10.9645
24 1 9.07161 1.8236 12.8335
4 1 4.45142 3.50688 12.8908
21 1 12.2824 2.46848 12.3445
40 2 10.8888 0.176381 12.6511
47 3 10.4666 1.85585 10.9755
53 3 10.7798 1.6555 13.3949
58 3 12.0462 3.90237 10.9636
65 3 9.12645 4.40041 12.0173
75 3 1.03379 5.61491 11.0559
17 1 0.571491 6.11875 12.6556
37 2 3.56121 6.21449 12.3468
51 3 3.92617 4.74249 11.3945
52 3 0.109711 7.89087 12.2681
83 3 2.23416 6.20904 13.2774
11 1 7.02373 5.53027 12.0866
46 3 5.00855 6.35597 12.893
28 1 7.99638 8.64176 11.5438
90 3 8.26932 6.60912 11.6559
5 1 11.8135 7.54738 11.0376
33 2 9.58304 5.83909 11.6025
72 3 10.8072 6.6031 12.1768
2 1 0.689529 12.4373 12.8211
29 2 2.40835 10.7455 10.9367
35 2 0.413621 9.2881 12.0635
50 3 3.68423 11.1248 12.0228
87 3 1.15418 11.7123 11.0122
91 3 2.04072 9.31168 11.1609
64 3 0.212447 10.4068 13.2463
16 1 7.83547 12.6778 13.1555
3 1 5.12335 9.97482 12.0549
6 1 6.95628 12.8025 10.5564
97 3 6.98969 11.4903 12.1257
70 3 12.7652 9.68376 10.858
25 1 11.4656 10.5191 12.4929
49 3 9.92824 9.87009 11.6079
66 3 11.9617 12.5307 12.4839
84 3 9.4614 12.8301 12.4104
ITEM: TIMESTEP
2500
ITEM: NUMBER OF ATOMS
178
ITEM: BOX BOUNDS pp pp pp
0.0000000000000000e+00 1.3168533823700001e+01
0.0000000000000000e+00 1.3168533823700001e+01
0.0000000000000000e+00 3.5381309593600001e+01
ITEM: ATOMS id type x y z
143 6 3.98591 1.10644 0.823091
149 6 1.48934 1.45682 2.52814
163 7 4.02525 2.51427 3.162
101 4 2.70695 3.52681 1.086
126 5 1.64013 4.27064 3.78473
104 4 8.13835 2.89269 1.66329
147 6 6.10408 0.993574 2.95836
159 7 5.5988 3.14067 0.879035
166 7 7.48287 0.628712 0.663114
127 5 10.5857 2.70434 1.82975
144 6 13.1127 3.72868 1.51024
151 6 11.8755 1.24124 3.30708
167 7 12.8272 0.296297 0.876773
148 6 10.1617 0.321371 0.704414
132 5 11.6905 4.35629 4.02647
105 4 1.59513 5.75023 1.55205
120 5 2.63777 8.0588 1.91125
122 5 4.29051 5.39089 2.31549
124 5 12.9889 6.55124 2.97491
102 4 5.98362 7.25236 0.866029
123 5 7.93941 5.37279 1.50448
145 6 8.71298 7.79994 1.53158
165 7 4.94349 8.10568 2.98854
103 4 10.4873 5.18376 1.5147
169 7 9.65914 6.57862 3.62731
125 5 11.7671 8.53685 2.40662
108 4 3.50564 13.064 3.36957
106 4 2.09634 12.562 1.26606
128 5 2.7937 10.3735 2.30937
161 7 0.794325 8.95989 3.62234
141 6 0.356829 10.4445 1.13842
113 4 0.482498 12.0726 3.3354
142 6 4.64577 9.29092 0.512422
100 4 5.34766 11.9613 1.1616
107 4 7.07201 9.62998 1.52079
129 5 8.16983 11.6991 2.53175
115 4 11.1703 11.7375 2.58389
121 5 10.0455 9.9754 0.976187
117 4 2.58923 3.55981 6.20879
130 5 2.0317 0.788405 5.29406
109 4 6.41579 3.71577 3.49889
131 5 4.96407 1.72168 5.49094
134 5 7.49219 2.28146 5.63112
171 7 9.00831 0.887565 3.04818
177 7 0.110479 2.72357 5.24913
175 7 12.5133 0.101647 5.95372
178 7 10.4029 2.04951 5.24073
172 7 9.00943 4.13227 4.07735
136 5 3.01024 6.24933 6.67017
152 6 0.504109 5.59629 5.91175
153 6 1.1648 8.44819 6.25534
168 7 2.59968 6.66843 4.22107
112 4 4.64707 4.73826 4.79476
110 4 6.93382 6.44798 3.62696
133 5 5.44031 7.35526 5.7449
156 6 7.53885 5.28895 5.90279
137 5 10.4926 5.35844 6.17395
150 6 11.6463 7.65504 5.13137
173 7 8.63999 7.61715 5.82392
99 4 0.995791 11.9066 6.98185
111 4 1.99234 11.2028 5.09044
164 7 3.68657 9.2282 4.87296
176 7 4.32818 12.384 6.04229
114 4 5.16683 11.0752 3.51388
155 6 7.11792 12.4579 5.21123
162 7 5.86912 10.3237 6.34996
170 7 7.05395 9.19323 4.32482
118 4 10.5978 8.74232 6.95847
116 4 10.0518 12.2761 4.86091
154 6 9.70779 9.52352 3.87127
157 6 12.2033 10.483 5.40626
174 7 8.83094 10.5155 6.2634
32 2 3.27658 0.0601334 7.75513
61 3 0.869069 3.47406 9.01525
68 3 2.62718 0.735645 9.09697
79 3 0.304901 0.925434 9.49415
140 6 1.0285 1.47639 7.60317
69 3 3.66949 3.69798 8.39576
26 1 4.47823 1.55582 9.97544
10 1 2.46924 4.2766 9.92369
38 2 0.0528081 4.28482 9.96824
23 1 7.31059 2.78565 9.48458
39 2 5.17517 3.34085 7.75968
76 3 5.4736 2.40669 8.96485
78 3 7.61497 0.72024 9.08107
119 5 6.15074 0.17495 7.6064
139 6 8.99261 0.255614 7.25949
30 2 11.7648 1.72772 7.1404
48 3 8.95133 3.21396 9.38293
67 3 11.1913 2.53702 8.49138
160 7 9.36823 3.28881 7.34804
18 1 12.7674 3.77629 7.67379
9 1 11.8843 0.520415 9.1494
22 1 10.5557 3.63335 9.72652
1 1 9.30602 1.16321 10.1248
12 1 2.21345 7.45859 9.70876
44 3 2.35901 5.88509 8.72901
54 3 0.446365 8.0367 9.0298
20 1 4.22572 5.50418 9.42517
56 3 2.80486 8.49175 8.0581
62 3 3.77201 7.29671 10.7199
74 3 4.97948 9.0437 9.32377
42 2 6.26214 5.95344 8.57414
45 3 7.53665 9.18039 9.85895
57 3 4.95335 6.64739 8.14971
82 3 5.9018 6.1139 10.104
94 3 7.73977 6.67274 8.66586
158 6 7.49863 8.63044 7.83191
43 3 6.19525 4.48586 8.49058
34 2 4.90977 8.30676 10.5432
27 1 9.86313 6.84256 8.47137
77 3 10.8638 8.16348 9.16258
92 3 12.262 5.10466 9.05706
135 5 12.451 7.05112 7.67616
80 3 10.2897 6.09469 10.2946
19 1 0.137873 11.4113 10.0258
96 3 1.28354 10.5621 8.75241
138 5 3.26322 10.4044 7.44145
60 3 3.74056 10.4888 9.97672
14 1 12.9495 9.65305 8.13944
7 1 5.63679 10.6806 9.04084
31 2 7.58824 11.2358 7.83588
81 3 5.08189 13.0285 9.66657
98 3 7.39867 11.5342 9.45681
85 3 5.35255 8.87792 11.8086
89 3 9.9142 12.982 9.01939
15 1 8.72976 10.5393 9.87681
88 3 11.4572 11.1877 9.4426
146 6 10.879 11.6575 7.594
36 2 1.99553 2.27396 12.6771
59 3 0.545546 2.31416 12.9567
71 3 3.02781 3.08415 13.5061
86 3 2.33995 0.48753 12.6145
93 3 2.42585 2.52615 11.1412
8 1 2.01854 0.570628 10.6568
13 1 4.21414 13.1277 12.5238
41 2 6.5139 1.86921 12.3221
55 3 7.37593 1.4956 13.4216
63 3 5.05732 1.43405 11.8402
73 3 6.31917 3.40016 12.1415
95 3 7.6796 1.55013 11.1711
24 1 8.75389 2.2901 12.6765
4 1 4.23467 3.16351 12.3339
21 1 12.2345 2.00272 11.9561
40 2 10.7565 0.361619 11.9045
47 3 10.9198 1.34578 10.747
53 3 10.9004 0.921618 13.1508
58 3 12.3214 3.42516 10.8307
65 3 9.87102 4.22945 12.2185
75 3 0.995535 5.22721 10.7765
17 1 0.805647 6.0246 12.5586
37 2 3.98164 6.01377 11.9099
51 3 3.98206 4.59087 10.9846
52 3 0.223725 7.66365 12.5889
83 3 2.84246 6.22334 12.856
11 1 6.71182 5.5236 11.7138
46 3 5.34497 5.90694 12.4629
28 1 9.45602 8.17033 11.1722
90 3 8.52077 6.50196 11.8398
5 1 11.9705 7.39508 11.1652
33 2 9.80438 5.76745 11.7674
72 3 10.7009 6.73788 12.7099
2 1 0.990742 12.1469 12.9256
29 2 2.92057 10.6189 11.2391
35 2 0.578129 9.21527 12.1701
50 3 3.90596 11.2324 12.4024
87 3 1.62707 11.7012 11.165
91 3 2.08497 9.32614 11.525
64 3 0.331321 10.3222 13.1509
16 1 8.11921 12.4175 12.7425
3 1 5.84274 10.4666 12.5269
6 1 6.54191 0.263292 10.5951
97 3 6.45575 12.2146 11.9226
70 3 12.5572 9.2606 11.2922
25 1 11.3407 10.7305 11.7379
49 3 9.53502 9.96926 11.6027
66 3 12.0759 12.4919 11.3782
84 3 9.4123 12.7912 11.6738
ITEM: TIMESTEP
2600
ITEM: NUMBER OF ATOMS
178
ITEM: BOX BOUNDS pp pp pp
0.0000000000000000e+00 1.3168533823700001e+01
0.0000000000000000e+00 1.3168533823700001e+01
0.0000000000000000e+00 3.5381309593600001e+01
ITEM: ATOMS id type x y z
143 6 4.13538 1.09027 0.610664
149 6 1.46616 1.57619 2.43505
163 7 3.88931 2.80538 3.18464
101 4 2.78562 3.44479 0.846119
126 5 1.78334 4.14104 3.55583
104 4 8.28442 2.68272 1.44135
147 6 6.24288 0.736646 2.84227
159 7 5.82541 3.10793 1.23251
166 7 7.24135 0.887073 0.365186
127 5 10.6871 3.072 1.84179
144 6 12.9936 3.82028 1.44413
151 6 11.9369 1.09109 3.35296
167 7 12.796 13.0621 1.07083
148 6 10.1247 0.341561 0.914305
132 5 11.7865 4.59694 4.09669
105 4 1.87881 5.45797 1.36432
120 5 2.30095 7.75493 1.76898
122 5 4.40257 5.45269 2.1899
124 5 12.9845 6.3802 2.76007
102 4 6.39767 6.96827 0.820306
123 5 7.72543 5.07255 1.36048
145 6 8.72251 7.96231 1.4417
165 7 4.82272 8.03939 3.1648
103 4 10.5079 5.44712 1.40752
169 7 9.63404 6.56677 3.47636
125 5 11.8205 8.902 2.17058
108 4 3.73231 12.9938 3.18931
106 4 2.1189 12.4014 0.649738
128 5 3.26255 10.4483 2.44415
161 7 1.0247 9.22429 3.87549
141 6 0.504129 10.2343 1.0371
113 4 0.612501 11.9837 3.10568
142 6 4.57267 9.27888 0.414008
100 4 5.56475 11.9643 0.992128
107 4 6.77475 9.50541 1.42868
129 5 8.0869 11.6069 2.41345
115 4 11.0665 11.7876 2.62272
121 5 9.97647 9.99513 0.864749
117 4 2.64258 3.64781 6.11132
130 5 2.2121 1.00985 5.15595
109 4 6.35618 3.70406 3.67302
131 5 4.8664 1.78304 5.39058
134 5 7.56878 2.05775 5.46324
171 7 8.88293 0.979394 3.21566
177 7 0.0236113 2.67038 5.41228
175 7 12.5971 0.0340982 5.66121
178 7 10.2067 1.89536 5.423
172 7 9.02513 3.98476 3.9421
136 5 2.76199 6.42249 6.7661
152 6 0.502102 5.73536 5.83689
153 6 0.887563 8.77449 6.55271
168 7 2.52188 6.74992 4.32768
112 4 4.49864 5.06218 5.11143
110 4 6.87194 6.38913 3.61479
133 5 5.56828 7.45002 5.99058
156 6 7.29697 4.84726 6.10412
137 5 10.1317 5.55272 6.14681
150 6 11.8444 7.72134 5.12148
173 7 8.63029 7.54657 5.75929
99 4 1.01676 11.7964 7.21091
111 4 1.96938 11.4035 5.01671
164 7 3.58842 9.22128 5.12291
176 7 4.23177 12.0239 6.00849
114 4 5.60447 10.9756 3.54344
155 6 7.09625 12.4033 5.14363
162 7 5.80035 10.2466 6.484
170 7 7.06836 9.25188 4.49416
118 4 10.5065 8.888 7.15064
116 4 9.96921 12.4546 4.76654
154 6 9.813 9.54721 3.88017
157 6 12.0688 10.5608 5.43382
174 7 8.8901 10.4789 6.38742
32 2 3.04301 0.0947721 7.62226
61 3 1.05474 3.34892 9.2556
68 3 2.99004 0.961421 8.87485
79 3 0.328208 0.637176 9.51325
140 6 0.872998 1.64276 7.70945
69 3 3.62014 4.16526 8.23159
26 1 4.23843 1.12174 10.1621
10 1 2.5682 4.27707 9.81892
38 2 0.114758 4.44622 10.0847
23 1 7.15118 3.14641 9.78708
39 2 5.1023 3.26227 7.74739
76 3 5.42205 2.40355 9.03327
78 3 7.78594 0.988942 8.74034
119 5 6.04111 0.721421 7.37015
139 6 9.00291 0.237719 7.16206
30 2 11.5173 1.42615 7.22341
48 3 9.07736 3.31605 9.27303
67 3 11.7067 2.57013 8.4418
160 7 9.16031 3.54436 7.26746
18 1 12.2463 4.02837 7.40275
9 1 11.8993 1.08111 9.44145
22 1 10.8644 3.53868 10.2282
1 1 9.11764 1.27263 9.96673
12 1 2.28428 8.07455 9.91946
44 3 2.33033 6.12805 8.76248
54 3 0.340676 7.30998 9.55899
20 1 3.9577 5.78015 9.4444
56 3 2.81258 8.066 8.2536
62 3 3.83445 7.48118 10.6169
74 3 5.65612 8.54898 9.07268
42 2 6.29881 5.80511 8.78959
45 3 8.38011 8.23535 9.31236
57 3 5.05236 6.46007 8.00789
82 3 6.09363 6.45239 10.4564
94 3 7.71868 6.2208 8.62625
158 6 7.38848 8.75195 7.59537
43 3 6.18552 4.4311 9.13359
34 2 5.24828 7.94483 10.3624
27 1 9.35496 6.63014 8.88548
77 3 11.2484 7.86149 9.80631
92 3 12.2293 5.13454 9.17734
135 5 12.1178 6.74837 7.70766
80 3 9.58661 5.31703 10.4605
19 1 0.223741 11.7609 10.1692
96 3 1.24948 10.3478 9.08849
138 5 3.10294 10.1103 7.63358
60 3 3.79219 10.8805 9.8089
14 1 12.8025 9.53092 9.04213
7 1 5.1677 11.5654 8.8087
31 2 7.40574 11.3592 7.81708
81 3 5.75878 12.9578 9.66729
98 3 7.24667 11.1272 9.44031
85 3 5.82425 8.86109 11.4479
89 3 10.304 0.399117 8.74161
15 1 8.88273 10.0706 9.62243
88 3 11.9663 11.128 9.43593
146 6 11.0498 11.7067 7.48665
36 2 2.37815 1.98433 12.8141
59 3 0.851472 2.17761 12.7606
71 3 3.27416 3.08736 13.4524
86 3 2.79434 0.566742 13.3913
93 3 2.75206 2.12915 11.2689
8 1 1.65009 0.971443 10.3793
13 1 4.69284 0.0356182 13.2712
41 2 6.66118 2.02368 12.4077
55 3 7.4206 1.61834 13.6099
63 3 5.29725 1.38432 11.9894
73 3 6.36313 3.60193 12.2174
95 3 7.81115 1.33726 11.3451
24 1 9.57601 2.68079 13.1882
4 1 4.49399 3.15264 11.9078
21 1 12.2191 2.02641 12.1911
40 2 10.7465 0.149263 11.9302
47 3 10.8629 1.55842 11.0472
53 3 10.2968 0.908804 13.398
58 3 12.2446 3.73808 11.0793
65 3 10.1552 4.09462 12.5403
75 3 1.11014 5.20824 10.9723
17 1 1.21537 6.12825 12.7243
37 2 3.9894 5.82471 12.3937
51 3 4.13886 4.7605 11.1215
52 3 0.91441 7.84609 12.3316
83 3 2.79656 6.16137 13.0836
11 1 6.89394 5.89035 12.1455
46 3 5.25886 6.02964 12.9684
28 1 8.77238 7.91568 11.6874
90 3 8.43221 6.34131 12.3934
5 1 12.3174 7.43251 11.0798
33 2 10.0144 5.47188 11.8838
72 3 10.9553 6.57972 12.0985
2 1 0.69183 12.1899 12.9827
29 2 2.97233 11.0837 11.1537
35 2 0.79024 9.33371 12.0079
50 3 3.54014 11.3463 12.4953
87 3 1.6541 12.2327 11.2554
91 3 2.2375 9.50895 11.175
64 3 0.9461 10.3383 13.1381
16 1 8.30182 12.9352 12.9047
3 1 5.48226 10.4929 12.4324
6 1 6.84096 12.8443 10.882
97 3 6.43454 11.8911 12.3228
70 3 12.8097 9.62064 11.0773
25 1 11.2426 10.0457 10.7347
49 3 9.57476 9.67853 11.4396
66 3 12.0713 12.7631 11.9543
84 3 9.52338 12.6304 11.5392
ITEM: TIMESTEP
2700
ITEM: NUMBER OF ATOMS
178
ITEM: BOX BOUNDS pp pp pp
0.0000000000000000e+00 1.3168533823700001e+01
0.0000000000000000e+00 1.3168533823700001e+01
0.0000000000000000e+00 3.5381309593600001e+01
ITEM: ATOMS id type x y z
143 6 4.13742 1.07016 0.470362
149 6 1.39008 1.56883 2.07275
163 7 3.80521 2.69838 3.13255
101 4 2.82598 3.24027 0.84263
126 5 1.63363 4.41672 3.55891
104 4 8.10783 2.5862 1.2744
147 6 6.12614 0.868934 2.96094
159 7 5.50872 2.97424 1.07255
166 7 7.05855 0.470333 0.294803
127 5 10.5307 2.94703 2.00966
144 6 13.1628 3.95177 1.31226
151 6 11.9169 1.28424 3.31134
167 7 12.7287 12.8355 0.866532
148 6 9.8356 0.212526 0.979323
132 5 11.8495 4.32258 3.86518
105 4 2.15161 5.48362 1.18197
120 5 2.26186 7.95927 1.73108
122 5 4.4888 5.36117 2.20536
124 5 13.162 6.52512 2.70815
102 4 6.06939 7.14232 1.11096
123 5 8.04714 5.2415 1.72092
145 6 8.89272 7.78555 1.70467
165 7 4.64003 7.99986 3.08188
103 4 10.7845 5.33349 1.41949
169 7 10.0277 6.44482 3.49356
125 5 11.7166 8.6691 2.46019
108 4 3.50256 13.1561 3.14871
106 4 2.43582 12.3406 0.882952
128 5 2.92526 10.3408 2.55678
161 7 0.864877 9.11918 3.80153
141 6 0.674642 10.3192 1.11195
113 4 0.836176 12.2746 3.17756
142 6 4.46019 9.23999 0.619695
100 4 5.20018 11.7227 1.13192
107 4 6.88455 9.54768 1.73241
129 5 7.86341 11.9433 2.42445
115 4 11.4176 11.5715 2.623
121 5 9.68164 10.3421 1.15908
117 4 2.41423 3.80298 6.07723
130 5 1.9704 1.06407 5.10957
109 4 6.56806 3.56919 3.40343
131 5 4.75365 1.55422 5.35056
134 5 7.40562 1.98404 5.65948
171 7 8.91582 1.2043 3.45704
177 7 0.0866275 2.79269 5.4545
175 7 12.6088 0.0160684 5.71528
178 7 10.4733 2.23384 5.38419
172 7 9.0113 4.12828 4.01808
136 5 2.80928 6.62903 7.09953
152 6 0.47428 5.83427 5.56891
153 6 0.886536 8.77124 6.64228
168 7 2.63052 6.96464 4.30784
112 4 4.57788 5.06843 4.77923
110 4 6.97554 6.54463 3.61683
133 5 5.4042 7.25102 5.92965
156 6 7.12195 4.80612 5.91016
137 5 10.4329 5.32839 6.1337
150 6 11.7683 7.58434 4.96777
173 7 8.75421 7.54017 5.84319
99 4 1.13905 11.867 7.07927
111 4 1.93842 11.1809 5.06017
164 7 3.57532 9.25986 5.40656
176 7 4.09347 12.3931 5.9171
114 4 5.23004 10.9605 3.44707
155 6 7.0607 12.3748 5.39755
162 7 5.79925 10.2328 6.35625
170 7 7.20831 9.23422 4.3324
118 4 10.6492 8.81815 6.86903
116 4 9.99596 12.3628 4.75853
154 6 9.73922 9.59041 3.79822
157 6 12.1405 10.3629 5.15704
174 7 9.01233 10.6481 6.37057
32 2 3.12274 0.335362 7.64733
61 3 1.05539 3.11204 9.30836
68 3 2.8914 1.01632 8.95599
79 3 0.238839 0.624744 9.65421
140 6 0.772464 1.47829 7.68009
69 3 3.57852 3.86237 8.68518
26 1 4.5404 1.29928 10.2484
10 1 2.6218 3.4593 10.0914
38 2 0.0884551 4.06535 10.2844
23 1 7.26863 2.96626 9.02456
39 2 4.69392 3.14344 7.76796
76 3 5.72663 2.17542 8.68552
78 3 7.65237 0.169723 8.85537
119 5 5.86694 0.210656 7.65338
139 6 9.07814 0.273994 7.11326
30 2 11.616 1.37044 7.14513
48 3 9.22152 3.05919 9.14629
67 3 11.8855 2.08449 8.6767
160 7 9.00644 3.23676 6.98737
18 1 12.5407 4.07343 7.67542
9 1 11.7242 0.809443 9.72319
22 1 10.6095 3.33892 10.093
1 1 9.14345 1.22117 9.96402
12 1 2.42835 7.6306 10.754
44 3 2.55031 6.30812 9.20022
54 3 0.237324 8.04537 9.10847
20 1 4.15905 5.39397 9.75794
56 3 2.73105 8.6078 8.39074
62 3 4.19913 7.75625 10.9698
74 3 5.46435 8.74648 9.03376
42 2 6.2945 5.8241 9.07152
45 3 7.94808 8.12311 9.49808
57 3 5.09446 6.15986 8.17055
82 3 6.46487 6.76142 10.4127
94 3 7.65641 5.8837 8.35015
158 6 7.40828 8.96643 7.77834
43 3 6.11833 4.43319 9.78666
34 2 5.5938 8.11609 10.4957
27 1 9.24521 6.64214 9.14557
77 3 10.6473 7.78169 9.59887
92 3 12.5612 4.95819 9.20608
135 5 12.2303 6.83044 7.73684
80 3 9.50557 5.15986 10.5879
19 1 0.366819 11.9157 10.1514
96 3 0.851478 10.1379 8.4109
138 5 3.23235 10.4922 7.60122
60 3 3.70423 10.672 9.65134
14 1 12.6359 9.52898 9.3116
7 1 5.36072 11.2381 9.19971
31 2 7.505 11.4622 7.73041
81 3 5.35791 12.9342 9.90045
98 3 7.2485 11.197 9.44005
85 3 6.35619 8.92375 11.4321
89 3 10.1177 0.192445 8.91923
15 1 9.67421 10.3611 9.41882
88 3 11.5191 11.6959 9.72718
146 6 11.2511 11.7656 7.55352
36 2 2.6858 1.71627 12.9437
59 3 1.28291 1.64641 12.4446
71 3 3.19007 3.03801 13.6973
86 3 3.2651 0.42136 13.3484
93 3 3.44076 2.29543 11.4242
8 1 1.86209 0.939643 10.5345
13 1 4.79109 12.7161 12.6603
41 2 6.91777 2.17858 12.2752
55 3 7.47448 1.6215 13.7936
63 3 5.45942 1.59393 12.0887
73 3 7.08924 3.63497 12.1417
95 3 7.75505 1.27571 11.3117
24 1 8.92502 2.96137 13.9391
4 1 4.49678 3.60522 12.6771
21 1 12.6974 1.85514 12.24
40 2 10.5025 0.542006 12.5624
47 3 10.8047 1.56248 11.2699
53 3 9.994 0.898897 13.8511
58 3 12.2363 3.26877 11.1137
65 3 9.67432 4.31402 13.0503
75 3 0.90082 4.84392 11.1238
17 1 0.435085 5.95032 12.3505
37 2 3.92826 5.89729 12.8135
51 3 3.77407 5.03096 11.5098
52 3 0.397373 8.11326 11.7976
83 3 2.69626 6.43366 13.5195
11 1 6.95786 5.37249 11.8402
46 3 5.517 5.87683 12.9264
28 1 8.08277 8.07962 11.3387
90 3 8.94452 6.90508 12.3516
5 1 12.1594 7.45538 10.9105
33 2 9.99956 5.4674 12.0293
72 3 11.4909 6.00007 11.8576
2 1 0.676242 12.0319 12.965
29 2 3.19319 10.9819 11.1567
35 2 0.826022 9.63785 11.7903
50 3 4.5476 11.2699 11.7997
87 3 2.20955 12.0484 10.9574
91 3 2.346 9.50839 11.2436
64 3 0.85153 10.3299 13.15
16 1 8.30971 0.17922 13.2555
3 1 6.83607 10.5148 11.7495
6 1 7.18795 12.6165 10.4886
97 3 7.23284 12.2331 12.3125
70 3 12.9992 10.5451 10.9373
25 1 10.8052 11.4227 11.5633
49 3 9.88853 9.9105 11.1462
66 3 12.0165 12.9353 12.6947
84 3 9.60727 12.6569 11.7491
ITEM: TIMESTEP
2800
ITEM: NUMBER OF ATOMS
178
ITEM: BOX BOUNDS pp pp pp
0.0000000000000000e+00 1.3168533823700001e+01
0.0000000000000000e+00 1.3168533823700001e+01
0.0000000000000000e+00 3.5381309593600001e+01
ITEM: ATOMS id type x y z
143 6 3.97079 0.905576 0.521103
149 6 1.33813 1.52671 1.80752
163 7 3.81017 2.44171 3.03762
101 4 2.73634 3.47311 0.679697
126 5 1.88171 4.06589 3.53805
104 4 7.83314 2.33663 1.41329
147 6 5.83779 0.890431 2.92924
159 7 5.52207 3.01675 0.733392
166 7 6.89826 0.119914 0.659732
127 5 10.3576 2.76814 1.90787
144 6 13.1069 4.01525 0.8861
151 6 12.0351 1.2071 3.11736
167 7 12.5548 13.0463 0.805674
148 6 9.76493 0.0932323 1.40445
132 5 12.1056 4.46476 3.73382
105 4 2.05682 5.76201 1.13061
120 5 2.58498 7.91135 1.74591
122 5 4.55271 5.36011 2.16182
124 5 13.1117 6.53548 2.60235
102 4 6.3235 7.09722 1.00028
123 5 8.17886 4.97083 1.46232
145 6 8.83346 7.78781 1.78468
165 7 4.85005 8.1099 3.36104
103 4 10.8007 5.39563 1.28518
169 7 10.0155 6.29477 3.59581
125 5 11.5562 8.67288 1.98343
108 4 3.38968 12.974 3.18019
106 4 2.16702 12.1462 0.919274
128 5 2.86237 10.1676 2.78894
161 7 0.706832 8.80187 3.78869
141 6 0.344992 10.3942 1.20975
113 4 0.740117 12.0466 3.27515
142 6 4.64352 9.38979 0.843203
100 4 5.0112 11.7211 1.28495
107 4 6.92191 9.50865 1.66535
129 5 7.80839 11.7011 2.84996
115 4 11.3271 11.5026 2.62811
121 5 9.69459 10.4136 1.29528
117 4 2.75938 3.97873 6.15784
130 5 1.84839 1.03359 5.08725
109 4 6.32617 3.78583 3.44947
131 5 4.77378 2.28095 5.46447
134 5 7.27565 2.20351 5.6709
171 7 8.68997 1.42266 3.58231
177 7 0.0813165 2.95303 5.58346
175 7 12.277 0.154129 5.68407
178 7 10.6098 2.30071 5.09188
172 7 8.98223 4.07796 4.03504
136 5 3.04049 6.61101 6.96454
152 6 0.715318 5.82397 5.73054
153 6 0.970599 8.6554 6.46956
168 7 2.63772 6.78837 4.29428
112 4 4.56681 4.99979 4.81936
110 4 7.08545 6.40416 3.65862
133 5 5.65765 7.4351 6.05812
156 6 7.27576 5.09657 5.93366
137 5 10.669 4.9633 6.21116
150 6 11.7427 7.6947 5.13492
173 7 8.75286 7.44471 5.85601
99 4 1.00675 12.0603 6.83259
111 4 1.91475 11.3371 5.08892
164 7 3.63575 9.16241 5.35173
176 7 4.08648 12.4547 5.90747
114 4 5.07868 11.0424 3.81492
155 6 7.08269 12.5558 5.23785
162 7 5.91817 10.455 6.52856
170 7 7.01244 9.24554 4.52835
118 4 10.8073 9.01013 7.02878
116 4 10.0301 12.5204 4.36907
154 6 9.69036 9.57625 4.00413
157 6 12.1124 10.5186 5.27242
174 7 8.95974 10.7059 6.33887
32 2 3.01569 0.424707 7.41128
61 3 0.955875 3.60506 8.95749
68 3 2.98831 0.746949 9.03105
79 3 0.416457 0.574976 9.6848
140 6 0.779565 1.23213 7.72543
69 3 3.39709 3.58137 8.32596
26 1 4.48348 0.848713 10.234
10 1 2.39446 3.87494 9.84128
38 2 0.132117 4.34943 10.1984
23 1 7.12744 3.22466 9.92789
39 2 4.69434 3.05637 8.02203
76 3 5.43119 1.94353 8.93346
78 3 7.74779 12.9054 8.76985
119 5 5.83767 12.9212 7.69941
139 6 9.31741 0.352166 6.85922
30 2 11.4649 1.96443 7.1566
48 3 8.61503 2.91161 9.20876
67 3 11.4211 2.33916 8.72757
160 7 9.07922 3.17872 7.20629
18 1 12.9408 3.77414 7.7096
9 1 11.9348 0.694187 9.59066
22 1 10.9574 3.84238 10.0103
1 1 9.37445 1.28015 10.1892
12 1 2.61444 7.87699 10.4116
44 3 2.52268 6.21485 8.8809
54 3 0.452585 7.71553 9.52607
20 1 3.9114 5.35479 9.30067
56 3 2.68506 8.68659 8.0947
62 3 4.26564 7.53735 10.938
74 3 5.84284 8.69869 9.43266
42 2 6.27904 5.92753 9.19887
45 3 8.5164 8.31452 9.4017
57 3 5.29707 6.53355 8.17387
82 3 6.39969 6.49935 10.6983
94 3 7.72996 5.80004 8.79444
158 6 7.61781 8.90654 7.59757
43 3 5.60564 4.46211 9.46962
34 2 5.91765 7.91435 10.7811
27 1 9.41437 6.47517 8.71274
77 3 10.9751 7.46178 9.12062
92 3 12.3089 5.15947 9.15229
135 5 12.3045 6.87445 7.7006
80 3 10.1269 5.25849 10.4301
19 1 0.238309 11.7913 10.5128
96 3 1.61882 10.4787 8.91631
138 5 3.33238 10.6684 7.6458
60 3 3.79995 10.238 9.73513
14 1 12.7903 9.73377 8.90209
7 1 5.85297 10.7604 9.25406
31 2 7.73213 11.4652 8.00898
81 3 5.28845 12.5358 9.95932
98 3 7.68608 10.8352 9.46279
85 3 6.50337 8.73764 11.8911
89 3 10.3012 0.222851 8.80064
15 1 9.43139 10.5476 9.28447
88 3 11.9512 11.5933 9.39962
146 6 11.2447 11.7694 7.38813
36 2 2.6955 1.61201 12.6496
59 3 1.33549 0.885434 12.7374
71 3 2.82089 2.95335 13.3918
86 3 3.48714 0.341628 12.6368
93 3 3.07502 2.15659 11.0885
8 1 2.02231 0.374769 10.6244
13 1 5.05181 12.8216 12.739
41 2 6.89001 2.30061 12.2582
55 3 7.54077 1.92712 13.4952
63 3 5.62496 1.84156 11.5074
73 3 6.93839 3.86935 12.2382
95 3 7.96903 1.87105 11.2551
24 1 8.92796 3.40159 13.4184
4 1 4.23923 3.52624 12.3763
21 1 12.8198 1.77033 12.0183
40 2 10.8346 0.184598 12.31
47 3 11.0692 1.34234 11.0482
53 3 10.0092 0.750108 13.3771
58 3 12.542 3.46981 11.2312
65 3 9.76173 4.90728 13.0468
75 3 1.18592 5.28995 10.8127
17 1 0.802457 6.38972 12.5188
37 2 4.0283 6.26147 12.236
51 3 4.04183 5.05323 11.1364
52 3 0.46321 7.98607 12.5954
83 3 2.66925 6.70914 12.9624
11 1 7.04557 5.82987 12.2858
46 3 5.2466 6.07698 13.0324
28 1 8.53719 8.52131 11.0564
90 3 9.11715 6.8519 11.8555
5 1 12.3632 7.6925 10.626
33 2 10.242 5.86908 11.8164
72 3 11.6447 6.49902 11.8372
2 1 1.09844 12.3164 12.9862
29 2 3.26259 10.7083 11.1166
35 2 0.672645 9.41834 12.1564
50 3 4.35345 10.9291 12.2481
87 3 2.18419 11.8384 10.8136
91 3 2.1822 9.41892 11.3727
64 3 0.640593 10.5652 13.2084
16 1 8.32024 0.276867 13.1076
3 1 5.9325 10.4744 12.1125
6 1 6.8648 0.233308 10.5479
97 3 6.79358 12.5159 12.2575
70 3 12.7547 10.0078 11.0028
25 1 11.1069 11.2518 10.8441
49 3 9.95543 9.90765 11.1063
66 3 12.526 12.7428 12.2407
84 3 9.99667 12.2006 11.8523
ITEM: TIMESTEP
2900
ITEM: NUMBER OF ATOMS
178
ITEM: BOX BOUNDS pp pp pp
0.0000000000000000e+00 1.3168533823700001e+01
0.0000000000000000e+00 1.3168533823700001e+01
0.0000000000000000e+00 3.5381309593600001e+01
ITEM: ATOMS id type x y z
143 6 3.8919 0.876424 0.539546
149 6 1.34375 1.60319 1.79095
163 7 3.7823 2.85194 2.73299
101 4 2.72844 3.58595 0.643992
126 5 1.5297 4.10972 3.37886
104 4 8.00903 2.43609 1.36147
147 6 5.78024 0.819829 3.30952
159 7 5.55299 2.82697 0.889641
166 7 7.06511 0.191266 0.902842
127 5 10.4448 3.00968 1.90597
144 6 12.9497 4.0415 0.982275
151 6 12.2128 1.31626 3.28241
167 7 12.4177 0.051445 0.954202
148 6 9.71674 0.103653 1.57621
132 5 12.0864 4.28082 3.57774
105 4 1.68872 5.55398 1.33723
120 5 2.63114 7.67657 1.70088
122 5 4.32286 5.39723 1.93912
124 5 0.00231281 6.5017 2.74662
102 4 6.33767 6.92933 1.00672
123 5 7.93234 4.97496 1.43811
145 6 8.82185 7.6791 1.63572
165 7 4.99168 7.85631 3.35732
103 4 10.6114 5.53323 1.29198
169 7 9.81264 6.25891 3.59262
125 5 11.4487 8.16142 2.22881
108 4 3.15136 12.9045 3.15343
106 4 1.75723 12.1044 0.841172
128 5 2.89551 10.3189 2.53316
161 7 0.761668 9.03382 3.75727
141 6 13.142 10.0507 1.19145
113 4 0.420209 12.1962 3.4377
142 6 4.80607 9.28458 0.876196
100 4 5.12117 11.8963 1.43281
107 4 7.07967 9.41624 1.91613
129 5 7.8148 11.6402 3.05296
115 4 11.421 11.3814 2.54518
121 5 9.75126 10.0419 1.07737
117 4 2.54543 4.04235 6.13022
130 5 1.77406 1.08203 4.84171
109 4 6.37898 3.59653 3.43676
131 5 4.59696 1.95006 5.45057
134 5 7.24443 2.46106 5.80904
171 7 8.31689 1.1962 3.62694
177 7 0.0434218 3.01823 5.67302
175 7 12.2965 0.342936 5.70833
178 7 10.3753 2.34815 5.06257
172 7 8.93463 4.02269 3.88137
136 5 3.25963 6.83155 6.58887
152 6 0.557154 5.72899 5.5685
153 6 1.06338 8.65172 6.41332
168 7 2.659 6.69386 4.08717
112 4 4.92517 5.28331 4.81063
110 4 7.02527 6.49621 3.77031
133 5 5.81814 7.33842 6.20214
156 6 7.77572 5.10032 6.07182
137 5 10.8238 5.11497 5.97824
150 6 11.8867 7.55701 5.09534
173 7 9.07148 7.41456 5.76843
99 4 0.856755 11.7645 6.94177
111 4 2.04932 11.0792 5.08257
164 7 3.80069 9.18509 5.37983
176 7 4.14876 12.381 5.78227
114 4 5.33272 10.799 3.70355
155 6 6.98627 12.7761 5.54043
162 7 5.80811 10.6156 6.80427
170 7 7.11316 9.3201 4.86357
118 4 10.5782 8.90862 7.01852
116 4 10.12 12.3504 4.37747
154 6 9.86891 9.34128 3.98378
157 6 12.1903 10.5696 5.46017
174 7 8.85203 10.8162 6.09488
32 2 2.75333 0.536088 7.22544
61 3 0.731676 3.66265 9.39777
68 3 2.83974 0.835597 8.77615
79 3 0.308255 0.509065 9.57199
140 6 0.645915 1.35917 7.54949
69 3 4.02569 3.63007 8.93031
26 1 3.94376 2.21894 9.73359
10 1 2.46948 4.53575 9.87922
38 2 13.1548 4.45491 10.4716
23 1 7.49257 3.15248 9.59651
39 2 5.41093 3.18418 7.94365
76 3 5.92583 2.17515 9.05318
78 3 7.4756 0.168233 8.88678
119 5 5.60774 0.468647 7.65454
139 6 9.46855 0.57624 6.49728
30 2 11.5969 2.19868 7.13277
48 3 9.21351 2.78447 9.20566
67 3 11.7527 2.59863 8.80212
160 7 9.32261 3.38167 7.26395
18 1 12.5952 4.21336 8.07466
9 1 11.5666 0.646809 9.14727
22 1 10.4868 3.6642 10.5988
1 1 9.05858 1.12799 9.75579
12 1 2.62148 7.73853 9.76022
44 3 2.77782 5.80689 8.51747
54 3 0.885128 7.91295 9.05494
20 1 4.47473 5.40633 9.38294
56 3 3.58138 8.22417 8.22131
62 3 4.26761 7.3725 10.6087
74 3 5.92436 8.80025 9.01315
42 2 6.82018 6.00404 8.73507
45 3 8.63503 8.17879 9.50612
57 3 5.43006 6.62984 8.0963
82 3 6.54539 6.2858 10.0827
94 3 8.18372 5.62621 8.30907
158 6 7.82587 8.83469 7.56885
43 3 6.33107 4.36678 8.69124
34 2 5.73968 8.02159 10.2898
27 1 9.78085 6.20442 8.93812
77 3 11.3885 7.93043 9.54264
92 3 12.1353 5.11021 9.44165
135 5 12.3628 6.87117 7.77307
80 3 9.62317 5.31593 10.5089
19 1 0.443022 11.9531 9.73425
96 3 1.14718 10.5617 8.89523
138 5 3.16637 10.3397 7.73655
60 3 3.51561 10.3507 9.93572
14 1 12.978 9.54444 9.17922
7 1 5.72214 10.7424 9.42664
31 2 7.65073 11.9608 8.20187
81 3 5.24118 12.8511 9.95238
98 3 7.92913 11.175 9.52502
85 3 6.52486 8.81918 11.3022
89 3 10.0001 13.0942 8.81176
15 1 9.23204 10.1026 10.0632
88 3 11.6929 11.5521 9.55094
146 6 11.0582 11.7539 7.47339
36 2 2.57754 2.07263 12.5562
59 3 1.06349 1.32154 12.3153
71 3 3.09349 3.17709 13.409
86 3 3.37478 0.726312 12.6216
93 3 2.60107 2.42254 10.9013
8 1 2.09139 0.706998 10.5466
13 1 4.5697 13.1626 11.626
41 2 6.92082 2.35006 11.8041
55 3 7.71719 2.12273 13.2827
63 3 5.47397 2.22202 11.5413
73 3 7.41371 3.82309 11.3568
95 3 7.72378 1.37254 11.0541
24 1 9.85054 2.54029 13.1349
4 1 4.66881 3.81479 12.6516
21 1 13.1578 1.99292 10.7492
40 2 10.76 0.208928 11.4573
47 3 10.7767 1.47767 10.6164
53 3 10.524 0.933809 12.9958
58 3 12.2588 3.67274 11.374
65 3 10.07 4.17094 12.7623
75 3 1.0114 5.61116 11.0784
17 1 1.10393 6.62554 12.3352
37 2 4.09523 6.41295 11.8866
51 3 4.23399 5.00738 11.1711
52 3 0.172178 8.18196 12.7846
83 3 2.77958 6.65815 12.7368
11 1 7.11474 5.60028 11.7481
46 3 5.45784 6.4214 12.6053
28 1 9.1562 7.90396 11.4937
90 3 8.79261 6.42013 12.488
5 1 12.0163 7.90631 11.4579
33 2 10.0379 5.53934 12.0346
72 3 11.2706 6.34905 12.0168
2 1 0.687226 12.4111 12.4616
29 2 3.16861 10.5314 11.3209
35 2 0.896593 9.52214 12.2787
50 3 4.28969 10.6647 12.2196
87 3 2.36888 12.0037 11.1405
91 3 2.26826 9.29022 11.7668
64 3 0.770399 10.6339 13.2107
16 1 8.02907 0.283599 12.9822
3 1 6.08535 10.1697 12.3469
6 1 7.71681 12.3721 10.9301
97 3 6.85807 11.7793 12.4735
70 3 13.0383 9.86901 11.0381
25 1 11.6693 10.9833 11.1444
49 3 10.1221 9.5651 11.381
66 3 11.9372 12.5172 11.8232
84 3 9.4178 12.5835 11.2813
ITEM: TIMESTEP
3000
ITEM: NUMBER OF ATOMS
178
ITEM: BOX BOUNDS pp pp pp
0.0000000000000000e+00 1.3168533823700001e+01
0.0000000000000000e+00 1.3168533823700001e+01
0.0000000000000000e+00 3.5381309593600001e+01
ITEM: ATOMS id type x y z
143 6 4.00608 0.831952 0.673512
149 6 1.36246 1.61835 1.78331
163 7 3.67459 2.77552 3.09607
101 4 2.75392 3.29409 0.599851
126 5 1.42021 3.985 3.42924
104 4 8.08309 2.67085 1.22869
147 6 5.60743 0.679298 3.18132
159 7 5.6426 2.71848 1.05983
166 7 7.15445 0.391259 1.20664
109 4 6.40249 3.48516 3.41957
127 5 10.5391 2.57894 1.89926
144 6 12.7381 3.83367 1.08327
151 6 12.202 1.45213 3.47319
148 6 9.86939 0.0933765 1.43425
105 4 1.98489 5.45704 1.15612
120 5 2.57655 7.76347 1.65081
124 5 0.156365 6.45666 2.55661
122 5 4.56748 5.27928 2.1009
102 4 5.98044 7.18064 1.02192
123 5 7.5337 5.02177 1.52142
165 7 4.72638 7.88732 3.29193
110 4 7.06101 6.73082 3.48827
145 6 8.88623 7.36758 1.13881
103 4 10.5266 5.27769 1.23099
125 5 11.5243 8.15667 1.90759
108 4 3.21065 13.1136 2.95268
106 4 1.55196 12.3364 1.17503
128 5 2.82633 10.2506 2.39601
141 6 0.232547 10.1054 1.12708
113 4 0.390588 12.0669 3.31055
142 6 4.90614 9.1981 0.866303
100 4 5.42644 11.5888 1.27692
107 4 7.27375 9.23192 2.33507
129 5 8.05871 11.5773 3.30171
167 7 12.3758 13.0856 1.14448
115 4 11.4075 11.2151 2.52304
121 5 9.73196 9.85672 1.16698
117 4 2.78912 3.87536 5.9229
130 5 1.75264 1.04032 4.97696
131 5 4.3376 2.01779 5.41683
134 5 7.30825 2.40597 5.81551
171 7 8.48004 1.14931 3.64882
177 7 13.1644 3.01008 5.6185
175 7 12.2825 0.10304 6.08931
178 7 10.3276 2.34083 5.05259
172 7 8.84273 3.936 3.75394
139 6 9.18659 0.486418 6.69251
136 5 3.08005 6.4252 6.80248
152 6 0.659193 5.79475 5.69903
153 6 1.19328 8.62823 6.42607
168 7 2.56534 6.74013 4.12026
112 4 4.75702 4.95002 4.86253
133 5 5.86291 7.34292 6.10168
156 6 7.95027 5.19064 5.83469
132 5 11.7693 4.62933 3.66417
169 7 9.9132 6.3553 3.54681
137 5 10.8369 5.2337 6.0993
150 6 11.9043 7.72968 4.98063
173 7 9.09532 7.66254 6.01329
161 7 0.771029 9.23684 3.64355
99 4 1.02477 11.9352 6.83037
111 4 2.14212 11.1136 4.7851
164 7 3.8967 9.14447 5.24393
176 7 4.07214 12.3528 5.8385
114 4 5.2281 11.0421 3.69006
155 6 6.77814 12.6743 5.69495
162 7 5.8073 10.4759 6.63896
170 7 7.0997 9.24281 4.91246
118 4 10.7041 9.07433 6.926
116 4 10.4766 12.5785 4.35783
154 6 9.67975 9.35579 3.80093
157 6 12.2113 10.3346 5.44392
174 7 8.95921 10.8806 6.09908
32 2 3.01834 0.398814 7.44198
61 3 0.804471 3.90937 9.3229
68 3 2.69952 1.19192 8.75216
79 3 0.120014 1.11042 9.70729
140 6 0.909823 1.51869 7.67191
69 3 3.94952 4.29875 8.38381
26 1 4.16194 2.86658 9.77518
8 1 2.1075 0.534749 10.3005
23 1 7.40725 2.55536 9.39438
39 2 5.34334 3.69963 7.84454
76 3 5.70713 2.3773 8.72674
119 5 5.43599 0.498139 7.71897
30 2 11.6713 2.07765 7.07895
48 3 9.19683 3.05354 9.38136
67 3 11.5279 2.77559 8.75154
160 7 9.54923 3.39053 7.30229
18 1 12.5509 4.09209 8.0676
9 1 11.6193 0.883563 9.14961
1 1 9.09778 1.39491 10.031
89 3 10.0919 0.321852 9.11387
10 1 2.3597 4.56508 9.48984
12 1 2.58129 8.25524 9.60224
44 3 2.54406 6.26092 8.95157
54 3 0.932301 7.96493 8.53835
20 1 4.22877 5.92293 9.47986
56 3 3.26983 8.258 7.84849
62 3 4.45527 7.41422 10.6062
74 3 5.99914 8.58826 8.93626
42 2 6.80423 6.0653 8.40159
45 3 8.6787 8.3826 9.65631
57 3 5.34932 6.41652 7.9471
82 3 6.69857 6.57769 10.0768
94 3 8.32679 5.99514 8.21978
43 3 6.42845 4.51289 8.60948
34 2 5.97253 7.96179 10.3404
38 2 13.0976 4.91164 10.2384
27 1 9.83328 6.92624 9.04266
77 3 11.9084 8.44236 9.3594
92 3 12.389 5.74778 9.26517
135 5 12.348 7.13905 7.66175
80 3 9.61071 5.63406 10.6117
19 1 0.0190079 11.559 9.97046
96 3 1.198 10.7096 8.80031
138 5 3.16245 10.5335 7.41073
60 3 3.61461 10.0534 9.48728
78 3 7.48534 13.1584 8.89452
158 6 7.81644 9.12896 7.87492
7 1 5.41395 10.861 9.37163
31 2 7.52272 11.7161 8.12419
81 3 5.22076 12.8435 10.0461
98 3 7.35474 10.8093 9.71197
6 1 7.10068 12.5874 10.5325
14 1 12.6783 9.54253 8.40738
15 1 9.64886 10.6267 9.99923
88 3 11.3296 11.0024 9.26888
146 6 10.867 11.6751 7.4879
36 2 2.37897 1.90057 12.2895
59 3 1.03441 1.15975 11.9428
71 3 2.25213 3.08147 13.1401
86 3 3.47083 0.77537 12.3681
93 3 2.79919 2.67781 10.8852
4 1 3.79351 3.65267 12.4501
41 2 6.75293 2.43018 11.9572
55 3 7.69736 1.92493 13.13
63 3 5.2739 2.68443 12.1994
73 3 7.22478 3.5714 11.0087
95 3 7.22625 1.32676 10.8199
22 1 10.4181 3.78422 10.6154
24 1 9.37504 2.26079 13.3257
21 1 12.8514 2.31318 11.0242
40 2 10.8471 0.22819 11.8447
47 3 10.8968 1.60319 11.2466
53 3 9.90198 0.623531 13.025
58 3 12.1214 3.95948 11.0644
65 3 9.90937 4.15211 12.4082
75 3 0.958919 5.8906 10.9197
17 1 1.66062 6.93376 12.2226
51 3 4.10256 4.87104 10.8728
52 3 0.473236 8.13115 12.6358
83 3 3.48092 6.98384 12.7526
37 2 4.5725 6.31962 12.0036
11 1 7.70059 5.29839 11.1647
46 3 5.89142 5.77697 12.3171
90 3 8.54571 6.33258 12.6246
28 1 9.22274 7.84565 11.4072
5 1 11.8283 8.2039 11.3058
33 2 9.89334 5.66649 12.2357
72 3 11.2167 6.48405 12.4088
2 1 0.592893 12.4216 12.5792
29 2 2.84648 10.7648 10.8004
35 2 0.783628 9.68071 12.0941
50 3 3.9663 11.1834 11.7339
87 3 1.67833 11.9251 10.9082
91 3 2.13997 9.45074 11.2061
64 3 0.619856 10.7715 13.038
85 3 6.33107 9.11387 11.1834
13 1 4.90186 13.1008 11.8866
16 1 8.17993 13.0059 12.8162
3 1 5.6248 10.3199 12.1522
97 3 6.61226 12.2563 12.326
70 3 12.621 10.0037 11.0948
25 1 11.1552 10.612 12.1904
49 3 10.1858 9.23612 11.7174
66 3 12.1816 12.6446 12.201
84 3 9.9511 11.8844 11.4172
ITEM: TIMESTEP
3100
ITEM: NUMBER OF ATOMS
178
ITEM: BOX BOUNDS pp pp pp
0.0000000000000000e+00 1.3168533823700001e+01
0.0000000000000000e+00 1.3168533823700001e+01
0.0000000000000000e+00 3.5381309593600001e+01
ITEM: ATOMS id type x y z
143 6 4.08174 0.672764 0.695524
149 6 1.27272 1.503 1.81812
163 7 3.73024 2.43209 3.22419
101 4 3.00976 3.13348 0.805472
126 5 1.52991 4.09205 3.55006
104 4 8.17755 2.65166 1.32334
147 6 5.81528 0.771766 3.34171
159 7 5.52676 2.88091 1.21826
166 7 7.35374 0.338912 1.02764
109 4 6.41679 3.62323 3.57021
127 5 10.6499 2.32331 2.08963
144 6 12.9999 3.72039 1.16898
151 6 12.3844 1.43348 3.60911
148 6 9.76781 12.8646 1.44748
105 4 2.1752 5.2408 1.23304
120 5 2.6124 7.75829 1.73482
124 5 13.1114 6.50448 2.30998
122 5 4.45302 5.27419 2.46425
102 4 6.21408 6.98709 0.786913
123 5 7.47256 5.04336 1.42681
165 7 4.90731 7.98338 3.25257
110 4 7.02243 6.52107 3.53539
145 6 8.9914 7.14819 0.81259
103 4 10.2636 4.86072 1.32385
125 5 11.4434 8.1779 1.80894
108 4 3.41281 12.8348 3.13124
106 4 1.97059 12.3164 0.935783
128 5 3.09196 10.2145 2.29222
141 6 0.559936 10.4838 1.13131
113 4 0.271914 12.096 3.63442
142 6 4.96283 9.44726 0.723841
100 4 5.90264 11.7288 1.37794
107 4 7.16565 9.02769 1.83685
129 5 7.96008 11.5879 3.04399
167 7 12.3361 13.1457 1.26096
115 4 11.3112 10.6651 2.51565
121 5 9.33755 10.0006 0.880173
117 4 2.42622 3.78372 5.92254
130 5 1.74841 1.12583 4.99185
131 5 5.09482 1.83449 5.72771
134 5 7.51102 2.52531 5.88816
171 7 8.55737 1.33669 3.63428
177 7 13.0922 3.06497 5.7857
175 7 12.2126 0.39397 6.15358
178 7 10.4677 2.33722 5.44899
172 7 9.22206 4.17672 3.59982
139 6 9.19775 0.505835 6.8198
136 5 3.10971 6.47872 6.72075
152 6 0.507929 5.77483 5.69748
153 6 1.28199 8.58146 6.22023
168 7 2.55345 6.65464 4.26242
112 4 4.94347 5.23647 4.85743
133 5 5.65559 7.35018 6.11741
156 6 7.72191 5.14096 5.68571
132 5 11.951 4.49288 3.79572
169 7 9.51838 6.65501 3.45031
137 5 10.5309 5.30539 5.95946
150 6 11.9045 7.64063 4.70658
173 7 8.79964 7.72274 5.97359
161 7 0.702276 8.88281 3.49732
99 4 1.09498 11.9768 6.67045
111 4 2.08412 11.0748 4.76901
164 7 3.66404 9.13288 5.18258
176 7 4.05764 12.4729 5.82206
114 4 5.21737 10.7908 3.64459
155 6 7.00523 12.683 5.33961
162 7 5.68394 10.4908 6.55153
170 7 6.9103 9.2493 4.79612
118 4 10.583 9.17736 7.08657
116 4 10.3301 12.4623 4.34161
154 6 9.52464 9.22267 3.66844
157 6 12.1772 10.6285 5.53838
174 7 8.90991 10.8153 5.98214
32 2 2.96998 0.169871 7.54515
61 3 0.807003 4.09242 8.99096
68 3 2.88189 0.917031 8.94998
79 3 0.112599 1.28216 9.65202
140 6 0.937657 1.75547 7.60531
69 3 3.67518 4.03678 8.14847
26 1 3.58939 2.77347 9.4231
8 1 1.89994 0.839267 10.6349
23 1 7.07953 3.09915 9.66704
39 2 4.99769 3.4074 7.927
76 3 5.38839 2.06027 9.03359
119 5 5.69266 0.00135444 7.70548
30 2 11.5556 2.45363 7.45631
48 3 8.95886 3.11371 9.40249
67 3 11.235 2.8626 9.04661
160 7 9.27197 3.36967 7.47638
18 1 12.3149 4.18484 8.12588
9 1 11.6786 0.871935 9.16514
1 1 8.95779 1.39273 9.81051
89 3 10.1655 0.165875 8.97662
10 1 2.36722 4.77659 9.94075
12 1 2.41619 7.97563 9.7955
44 3 2.80162 6.10284 8.85421
54 3 0.712628 8.21231 8.60444
20 1 4.40289 5.82103 9.4191
56 3 3.2053 8.24828 7.87709
62 3 4.2568 7.52005 10.7946
74 3 5.96295 9.11113 9.48446
42 2 6.69444 6.25366 8.54461
45 3 8.41721 8.69209 9.66346
57 3 5.17117 6.81983 8.13157
82 3 6.57206 6.66321 10.2023
94 3 8.10661 5.83636 8.62341
43 3 5.86159 4.61238 8.85017
34 2 5.75293 7.90727 10.4094
38 2 0.188128 4.59459 10.3425
27 1 9.72555 6.87561 9.06213
77 3 11.1901 7.91801 9.48557
92 3 12.1997 5.61642 9.41306
135 5 12.3951 7.37107 7.4106
80 3 9.83912 5.82746 10.2493
19 1 0.351456 11.6383 9.6521
96 3 1.06374 10.7393 8.45185
138 5 3.18804 10.4901 7.52548
60 3 3.59245 10.1971 9.64626
78 3 7.64992 0.367256 8.69641
158 6 7.74571 9.41102 7.82807
7 1 5.53451 10.9908 9.72732
31 2 7.58769 11.9792 7.96555
81 3 5.18515 12.8095 9.71845
98 3 7.48874 11.2495 9.43069
6 1 7.23197 12.953 10.4132
14 1 13.0702 9.50468 9.54059
15 1 10.0077 9.48327 9.77779
88 3 11.5997 10.9009 9.54258
146 6 10.9158 11.7585 7.67212
36 2 2.24242 2.08967 12.3496
59 3 0.785104 1.45364 12.5299
71 3 2.98217 2.9905 13.1833
86 3 3.0076 0.641035 12.124
93 3 2.34094 2.79044 10.8157
4 1 4.49833 3.73338 12.5347
41 2 6.85106 2.80249 12.0434
55 3 7.41256 2.85828 13.4036
63 3 5.32628 2.17125 11.9993
73 3 6.96767 4.11668 11.2548
95 3 7.5416 1.75595 11.0299
22 1 10.5115 4.215 10.3378
24 1 9.3056 2.66718 12.7249
21 1 12.3488 1.84369 11.4305
40 2 10.3826 13.1528 12.3268
47 3 10.4483 1.33104 11.3135
53 3 9.67031 0.63126 13.5142
58 3 12.621 3.62116 11.2916
65 3 9.84816 4.31032 12.0395
75 3 0.891756 5.74613 11.0045
17 1 0.796864 6.61523 12.61
51 3 3.86084 4.91029 11.1704
52 3 0.291233 8.41436 12.6191
83 3 3.11398 6.46857 13.1387
37 2 4.15387 6.25835 12.0434
11 1 7.10956 5.78945 11.8354
46 3 5.46001 5.8731 12.6465
90 3 8.74021 6.86057 12.1713
28 1 8.45794 8.52249 11.5983
5 1 11.4941 8.11463 11.459
33 2 9.9124 5.8831 11.7685
72 3 11.2538 6.43106 12.3221
2 1 2.40478 12.1525 12.9236
29 2 3.03713 10.7821 10.9519
35 2 1.01749 9.54676 12.0515
50 3 3.91333 10.9994 12.2079
87 3 2.04626 11.8826 10.8554
91 3 2.34066 9.1708 11.1468
64 3 1.56383 10.5897 13.129
85 3 6.3578 8.61841 11.6685
13 1 4.96534 0.405269 11.7804
16 1 7.8241 12.4089 12.8936
3 1 4.71387 9.50722 12.4192
97 3 6.47554 12.3427 11.9764
70 3 13.0975 10.3202 11.2471
25 1 10.9283 11.0024 11.4365
49 3 10.1992 9.373 11.6188
66 3 11.6679 12.4196 12.1815
84 3 9.20073 12.1415 11.6732
ITEM: TIMESTEP
3200
ITEM: NUMBER OF ATOMS
178
ITEM: BOX BOUNDS pp pp pp
0.0000000000000000e+00 1.3168533823700001e+01
0.0000000000000000e+00 1.3168533823700001e+01
0.0000000000000000e+00 3.5381309593600001e+01
ITEM: ATOMS id type x y z
143 6 4.3214 0.773167 0.730736
149 6 1.64393 1.41804 2.07474
163 7 3.91474 2.52585 3.48727
101 4 2.87907 3.24746 0.968702
126 5 1.69445 3.90234 3.58324
104 4 8.36762 2.6909 1.45412
147 6 6.22136 0.815009 3.06225
159 7 5.58236 2.81472 1.19168
166 7 7.40599 0.575843 0.67026
109 4 6.49508 3.65277 3.70304
127 5 10.5792 2.07842 1.92987
144 6 0.017968 3.64134 1.16997
151 6 12.5969 1.68775 3.86655
148 6 9.79321 12.62 1.46848
105 4 1.92579 5.44576 1.34
120 5 2.78993 7.71646 1.60885
124 5 0.0434541 6.33397 2.62827
122 5 4.40857 5.12715 2.09909
102 4 5.83516 6.96445 0.751804
123 5 7.66133 5.08693 1.37423
165 7 4.81056 7.9235 3.0223
110 4 6.94057 6.4691 3.61354
145 6 9.04146 7.1544 0.81368
103 4 10.5813 4.88111 1.2001
125 5 11.3102 8.08417 1.73249
108 4 3.45928 12.9039 3.15552
106 4 1.99993 12.2909 0.948255
128 5 2.98502 10.2058 2.40269
141 6 0.387069 10.4057 1.18588
113 4 0.586958 12.2078 3.6252
142 6 4.92186 9.24859 0.592548
100 4 5.63035 11.6489 1.31364
107 4 7.27935 8.86784 1.99147
129 5 7.94301 11.6765 3.03462
167 7 12.3689 13.0867 1.50899
115 4 11.3806 10.7216 2.53976
121 5 9.24355 10.1422 0.743761
117 4 2.76925 3.95798 6.18909
130 5 1.86174 0.955358 5.10225
131 5 4.93831 1.92519 5.66933
134 5 7.53207 2.27731 5.85883
171 7 8.77009 1.14579 3.63526
177 7 0.00254677 3.30485 5.8546
175 7 12.2569 0.374486 6.21055
178 7 10.3642 2.62384 5.24571
172 7 9.05293 4.02055 3.78674
139 6 9.54393 0.548599 6.84506
136 5 2.86929 6.75037 6.92316
152 6 0.366773 5.89204 5.51184
153 6 0.863164 8.58057 6.20408
168 7 2.59187 6.62685 4.19018
112 4 4.66032 4.98658 5.1075
133 5 5.74511 7.6435 6.05831
156 6 7.51974 5.19651 5.89936
132 5 11.8637 4.59483 3.42154
169 7 9.49679 6.439 3.3399
137 5 10.5162 5.43632 6.03395
150 6 11.561 7.7047 4.70394
173 7 8.65526 7.51767 5.82399
161 7 0.684843 9.04422 3.53001
99 4 0.834429 11.9956 6.83878
111 4 2.04387 11.0791 4.94792
164 7 3.6188 9.03449 5.05099
176 7 4.08878 12.4229 5.6895
114 4 5.2666 10.9632 3.58654
155 6 7.19509 12.5615 5.47753
162 7 5.7792 10.7132 6.59009
170 7 7.0337 9.372 4.68132
118 4 10.4453 8.71884 6.49589
116 4 10.6373 12.7215 4.1462
154 6 9.61579 9.34308 3.52728
157 6 12.1694 10.4125 5.53871
174 7 9.0492 10.8494 5.91705
32 2 2.77873 0.249021 7.32553
61 3 0.76241 3.47161 9.12718
68 3 2.9017 0.541247 9.02661
79 3 0.174029 0.494224 10.1803
140 6 0.73336 1.74369 7.88213
69 3 3.32396 3.21686 8.56408
26 1 4.37447 1.67984 9.84514
8 1 2.17896 0.551341 10.5577
23 1 6.92178 3.71574 9.53011
39 2 4.66855 3.61648 7.96128
76 3 5.6805 2.26481 8.91276
119 5 5.81366 0.122984 7.73033
30 2 11.3992 2.1069 7.52264
48 3 8.89425 3.52423 9.68163
67 3 11.3431 2.691 9.06062
160 7 9.02505 3.74062 7.54237
18 1 11.9636 4.13605 7.93747
9 1 11.8342 0.816667 8.95948
1 1 8.96628 1.38761 9.82992
89 3 10.057 0.161651 9.02999
10 1 2.73507 4.13702 10.0104
12 1 1.50641 7.55738 10.4529
44 3 3.17308 5.70494 8.94458
54 3 0.781872 7.4613 8.80085
20 1 4.35352 6.44181 9.89829
56 3 3.27121 8.35691 8.14584
62 3 4.1 7.57841 11.1471
74 3 5.75417 8.93449 9.51822
42 2 6.58058 6.34287 8.64178
45 3 8.38251 8.08634 9.26113
57 3 5.26305 7.00507 8.15926
82 3 6.50214 6.62305 10.4043
94 3 7.76732 5.46664 8.91464
43 3 5.23291 4.71282 8.86072
34 2 5.91744 8.0875 10.8123
38 2 13.0931 4.53349 9.94211
27 1 9.36801 6.75047 8.53362
77 3 11.6737 8.38377 9.57127
92 3 12.243 5.48772 9.09521
135 5 11.9725 7.26747 7.71102
80 3 9.74213 6.06827 10.1835
19 1 0.570558 12.057 9.89833
96 3 1.56023 10.495 8.91865
138 5 2.98258 10.4077 7.26773
60 3 3.6409 10.7366 9.3019
78 3 7.69298 13.0833 8.83516
158 6 7.49929 9.22941 7.64438
7 1 5.39626 10.7497 9.28113
31 2 7.57199 11.7072 8.15163
81 3 5.35562 12.7062 9.99231
98 3 7.75092 10.8682 9.43987
6 1 7.37922 12.3447 10.626
14 1 12.7757 9.80957 8.82258
15 1 10.0321 9.37083 9.54354
88 3 11.0675 11.0871 9.66936
146 6 10.8915 11.7578 7.57674
36 2 2.58052 2.2474 12.5109
59 3 1.12629 1.98154 12.7366
71 3 3.41828 3.10117 13.3302
86 3 3.17753 0.56736 12.3891
93 3 3.06999 2.59317 10.995
4 1 4.44935 3.49968 11.9066
41 2 6.80732 2.70132 12.1097
55 3 7.16671 3.07245 13.5181
63 3 5.54328 1.74221 11.9591
73 3 6.39949 3.95978 11.3312
95 3 7.92089 1.84297 11.4666
22 1 10.3305 3.37029 10.5554
24 1 9.29596 2.90582 13.012
21 1 12.8774 1.77803 11.6029
40 2 10.2675 0.422948 12.2123
47 3 10.7968 1.83495 11.4862
53 3 9.47006 0.845701 13.4476
58 3 12.3274 3.999 11.1512
65 3 9.57525 4.45101 12.095
75 3 1.11653 5.39499 10.6294
17 1 13.0075 6.08188 11.9854
51 3 3.85801 5.19524 11.2937
52 3 0.103104 8.27343 12.3116
83 3 2.30254 6.71413 12.5926
37 2 3.75595 6.33607 12.3733
11 1 6.81693 5.61574 12.0467
46 3 4.91899 6.32176 13.231
90 3 8.6722 6.7269 12.3014
28 1 8.32578 8.30854 11.827
5 1 11.5038 8.51036 11.3955
33 2 9.90222 5.93997 11.6684
72 3 11.3186 6.53652 12.025
2 1 1.73028 12.1991 12.7469
29 2 3.16684 10.6339 10.7124
35 2 0.823524 9.54914 11.8998
50 3 4.46585 10.4503 11.6188
87 3 2.17741 11.8152 10.967
91 3 2.23769 9.19395 11.1805
64 3 1.11822 10.6601 13.1594
85 3 6.53896 8.65809 11.9314
13 1 4.93137 13.0986 11.9508
16 1 7.5317 0.426558 12.9821
3 1 3.75595 8.87095 12.229
97 3 6.43445 12.3339 12.739
70 3 13.0111 10.3242 10.8769
25 1 10.735 11.2132 11.6189
49 3 9.74585 9.51588 11.4767
66 3 11.5055 12.8795 12.3741
84 3 9.29121 12.8829 11.2428
ITEM: TIMESTEP
3300
ITEM: NUMBER OF ATOMS
178
ITEM: BOX BOUNDS pp pp pp
0.0000000000000000e+00 1.3168533823700001e+01
0.0000000000000000e+00 1.3168533823700001e+01
0.0000000000000000e+00 3.5381309593600001e+01
ITEM: ATOMS id type x y z
143 6 4.33182 0.899152 0.685932
149 6 1.79166 1.38791 2.21496
163 7 4.03567 2.59077 3.10932
101 4 2.77738 3.37848 1.11911
126 5 1.67651 4.13764 3.63425
104 4 8.28588 2.66088 1.44723
147 6 6.07833 0.703324 3.14235
159 7 5.83234 2.92634 1.03366
166 7 7.40662 0.440638 0.785866
109 4 6.4438 3.43332 3.53688
127 5 10.6595 2.35203 2.27344
144 6 13.086 3.44114 1.23019
151 6 12.812 1.9811 3.75421
148 6 9.80721 12.8842 1.1273
105 4 1.92034 5.50879 1.20811
120 5 2.5649 7.81388 1.5038
124 5 0.254623 6.58582 2.50967
122 5 4.26754 5.3544 2.35388
102 4 5.74725 6.87718 0.769254
123 5 7.54059 5.18523 1.47883
165 7 4.67186 8.00282 3.26135
110 4 6.84867 6.50767 3.54085
145 6 8.98911 7.38727 0.85539
103 4 10.3634 4.94687 1.3312
125 5 11.5593 8.13165 1.75093
108 4 3.69103 12.9569 3.21852
106 4 1.72125 12.2173 1.29762
128 5 2.92617 10.3136 2.4549
141 6 0.284151 10.11 1.06858
113 4 0.560044 12.0644 3.65496
142 6 4.96181 9.28176 0.757035
100 4 5.52297 11.7241 1.22292
107 4 7.15493 8.90203 2.04189
129 5 7.99907 11.4164 2.96221
167 7 12.5622 0.115587 1.72856
115 4 11.4601 10.8685 2.35291
121 5 9.56044 9.77263 1.01844
117 4 2.63793 4.05711 6.19069
130 5 2.04857 1.20562 5.48088
131 5 4.71799 1.75241 5.65047
134 5 7.45854 2.38059 5.80513
171 7 8.82413 1.0353 3.56121
177 7 0.21267 3.32038 6.06604
175 7 12.411 0.374667 6.06216
178 7 10.5421 2.50659 5.24798
172 7 8.76682 3.96821 3.87079
139 6 9.50067 0.599588 6.64672
136 5 2.70639 6.67887 6.72883
152 6 0.38418 6.01609 5.65371
153 6 0.81028 8.68786 6.40502
168 7 2.64502 6.78363 4.13847
112 4 4.61658 5.16887 4.83983
133 5 5.28967 7.2897 5.8789
156 6 7.344 4.99894 5.93503
132 5 11.8112 4.58356 3.7766
169 7 9.60921 6.34585 3.25439
137 5 10.3824 5.27316 5.87882
150 6 11.6747 7.69315 4.69148
173 7 8.55795 7.45779 5.5769
161 7 0.744682 9.12727 3.66016
99 4 0.906687 11.72 6.90321
111 4 2.18302 11.2634 4.89632
164 7 3.60955 9.14722 5.19689
176 7 4.15688 12.3493 6.09191
114 4 5.26292 10.9031 3.53283
155 6 7.03431 12.8226 5.60553
162 7 5.74736 10.4762 6.48394
170 7 7.10362 9.40704 4.77788
118 4 10.3851 8.94985 6.91832
116 4 10.8808 12.8049 3.98974
154 6 9.5148 9.21066 3.60023
157 6 12.0559 10.6178 5.27599
174 7 9.13958 10.8216 5.90861
32 2 3.02438 0.341476 7.77878
61 3 0.879752 3.29418 9.6563
68 3 3.25575 0.325516 9.31831
79 3 0.0601587 1.00881 9.65248
140 6 0.774624 1.62985 7.93434
69 3 3.5639 2.64044 8.54879
26 1 4.75922 1.39256 10.3377
8 1 1.8092 0.748549 10.5288
23 1 7.18734 3.6339 9.91954
39 2 4.89519 3.20506 8.0587
76 3 5.99224 1.97456 9.25478
119 5 5.78108 0.311479 7.83954
30 2 11.6123 2.29383 7.42328
48 3 9.12923 2.99995 9.21282
67 3 11.691 3.05203 8.95493
160 7 9.172 3.6244 7.28319
18 1 11.9062 4.29882 7.69575
9 1 11.4063 1.22913 9.50509
1 1 8.18059 1.23066 9.4872
89 3 9.82548 0.596405 8.84934
10 1 2.79756 3.99225 9.66071
12 1 1.76931 7.59158 9.96339
44 3 2.62956 5.51913 8.59791
54 3 0.674167 7.83497 8.40658
20 1 4.21928 5.90651 9.51785
56 3 3.06493 8.22105 8.22252
62 3 4.07025 8.15871 10.6237
74 3 5.82669 9.07258 9.08371
42 2 6.30611 6.56236 8.78737
45 3 8.07808 8.10838 9.47895
57 3 5.00702 6.97122 8.13398
82 3 5.88775 6.76001 10.1694
94 3 7.4061 5.62005 8.67476
43 3 5.25596 4.4065 8.89724
34 2 5.48572 8.34378 10.3659
38 2 0.241538 4.62437 10.4973
27 1 9.42416 6.69078 8.48643
77 3 11.419 7.84174 9.32415
92 3 12.6397 5.12984 9.17888
135 5 12.166 6.75089 7.53183
80 3 9.59238 5.66566 10.2292
19 1 12.9513 11.9702 9.36358
96 3 0.500655 10.4999 8.60281
138 5 3.17591 10.2782 7.53214
60 3 3.72153 10.5712 9.75384
78 3 7.72266 12.9149 8.57203
158 6 7.5528 8.91375 7.48024
7 1 5.22268 11.0253 8.9935
31 2 7.68098 11.6061 7.8123
81 3 5.63298 12.5015 9.74241
98 3 7.94883 10.678 9.13052
6 1 7.8458 12.197 10.5027
14 1 12.175 9.46207 8.78644
15 1 9.30157 9.63598 9.59348
88 3 10.5279 11.1437 9.28253
146 6 11.1443 11.5441 7.37746
36 2 2.50458 1.73907 12.8601
59 3 1.01816 1.79656 12.4331
71 3 3.10004 2.73439 13.7291
86 3 2.77384 0.200257 13.2313
93 3 3.04927 2.04314 11.2087
4 1 4.24761 3.32427 12.134
41 2 6.77768 2.61888 12.1291
55 3 7.48917 2.5193 13.4012
63 3 5.42233 1.79591 11.9509
73 3 6.29048 4.16104 11.8568
95 3 7.6725 1.91075 11.0552
22 1 10.5731 3.46379 10.5965
24 1 9.30202 3.13444 13.5731
21 1 12.9746 2.17615 11.4622
40 2 10.5787 0.755148 12.335
47 3 11.175 1.8896 11.1949
53 3 9.82087 1.5052 13.4028
58 3 12.5365 4.04345 11.6609
65 3 9.67157 4.45642 12.1631
75 3 0.985337 5.68811 11.0247
17 1 13.1137 6.61726 12.018
51 3 3.67299 5.04552 11.1274
52 3 0.0968137 8.18878 11.2496
83 3 2.41939 7.25763 12.2068
37 2 3.51187 6.22643 12.2533
11 1 6.1703 6.31882 11.915
46 3 4.81066 6.22983 12.9152
90 3 8.55565 6.75327 12.1336
28 1 8.18338 8.39798 11.4837
5 1 11.2201 8.0004 11.1045
33 2 9.91235 5.92091 11.8095
72 3 11.3031 6.4998 12.3
2 1 1.42413 12.1905 12.8251
29 2 2.76625 10.7306 10.9309
35 2 0.356331 9.67786 11.7052
50 3 3.52219 10.8429 12.3638
87 3 1.81907 11.8721 10.5656
91 3 1.72481 9.60212 10.6881
64 3 0.903635 10.3232 12.8987
85 3 6.36764 8.72925 11.5209
13 1 4.99755 12.4638 12.33
16 1 8.32762 0.459775 12.8283
3 1 2.91356 8.98952 12.2123
97 3 6.90413 12.3395 12.1409
70 3 12.4715 10.5338 10.9757
25 1 10.6835 11.4874 11.7422
49 3 9.83522 9.5109 11.3065
66 3 11.7283 13.04 12.4156
84 3 9.37287 12.9278 11.7873
ITEM: TIMESTEP
3400
ITEM: NUMBER OF ATOMS
178
ITEM: BOX BOUNDS pp pp pp
0.0000000000000000e+00 1.3168533823700001e+01
0.0000000000000000e+00 1.3168533823700001e+01
0.0000000000000000e+00 3.5381309593600001e+01
ITEM: ATOMS id type x y z
143 6 4.12195 0.877387 0.683272
149 6 1.72987 1.36041 2.01079
163 7 3.86918 2.68173 2.93057
101 4 2.8093 3.28223 0.485406
126 5 1.80933 4.20111 3.49239
104 4 8.25673 2.58474 1.32583
147 6 5.88424 0.883702 3.09985
159 7 5.76234 2.94381 0.901747
166 7 7.24493 0.166806 0.983368
109 4 6.44978 3.78202 3.3964
127 5 10.8861 2.35882 2.3872
144 6 13.0914 3.61141 1.41836
151 6 12.9547 1.86141 3.94042
148 6 9.93398 0.118154 1.14618
105 4 1.8947 5.52876 1.07928
120 5 2.53152 7.7757 1.65967
124 5 13.1083 6.39269 2.42429
122 5 4.45417 5.329 1.98798
102 4 5.79167 7.13282 0.973364
123 5 7.57564 4.98785 1.40713
165 7 4.83416 8.05999 3.34939
110 4 6.88348 6.57155 3.46512
145 6 8.85515 7.31032 0.946548
103 4 10.271 4.70268 1.37604
125 5 11.5679 8.16199 2.05917
108 4 3.53025 12.9577 3.4737
106 4 1.73307 12.1254 1.14692
128 5 3.01024 10.4055 2.58119
141 6 0.469441 10.0601 1.22014
113 4 0.244917 12.2764 3.53909
142 6 4.89253 9.58213 0.855927
100 4 5.54615 11.7348 1.46442
107 4 7.31187 9.24579 1.95348
129 5 8.19802 11.6949 2.92869
167 7 12.4008 0.562036 1.48267
115 4 11.3878 11.2457 2.17565
121 5 9.82811 9.77316 0.877701
117 4 2.83313 3.81321 6.06494
130 5 2.04367 1.00273 5.07274
131 5 4.92989 1.94439 5.51534
134 5 7.42037 2.17423 5.80848
171 7 8.37756 1.21082 3.66746
177 7 0.263344 3.21759 6.14717
175 7 12.5475 0.272704 6.05516
178 7 10.7106 2.25409 5.18536
172 7 9.13705 4.06607 4.00143
139 6 9.45875 0.173138 6.46416
136 5 2.89193 6.53019 6.63363
152 6 0.651803 5.86547 5.55038
153 6 0.915103 9.10386 6.55886
168 7 2.37469 6.95978 4.21342
112 4 4.62932 4.95193 4.69198
133 5 5.71628 7.3893 6.07519
156 6 7.23259 5.0448 5.83651
132 5 11.9385 4.74448 3.68443
169 7 9.69595 6.43865 3.27216
137 5 10.3875 5.39201 6.07606
150 6 11.8823 7.68846 4.9995
173 7 8.78068 7.32335 5.87373
161 7 0.799608 9.13932 3.79951
99 4 1.0296 11.9125 6.90784
111 4 2.04897 11.2744 4.91586
164 7 3.50309 9.31403 5.43591
176 7 4.16544 12.3428 6.37421
114 4 5.2761 10.9697 3.84164
155 6 6.86259 12.4172 5.30485
162 7 5.8253 10.3969 6.61097
170 7 6.88618 9.1022 4.68025
118 4 10.5294 8.92528 6.59507
116 4 10.6053 12.9021 3.93872
154 6 9.55707 9.11556 3.59276
157 6 11.938 10.5362 5.02279
174 7 8.86943 10.8557 5.75505
32 2 3.17747 0.0803618 8.11195
61 3 0.936065 3.62155 9.52158
68 3 2.39982 0.72973 9.31741
79 3 0.232508 1.06264 9.65587
140 6 1.0576 1.522 7.8324
69 3 3.68326 3.2481 8.22053
26 1 4.43373 1.36907 10.394
8 1 1.76917 0.471151 11.0671
23 1 6.99028 3.66362 9.96451
39 2 5.06547 3.06094 8.15718
76 3 5.69207 2.05921 9.05282
119 5 5.87669 0.111463 7.78258
30 2 11.6973 1.96178 7.39297
48 3 8.36539 3.2637 8.7118
67 3 11.1241 2.62794 8.74894
160 7 9.29396 3.15462 6.99902
18 1 11.927 3.98633 8.02926
9 1 11.6218 0.740862 9.35015
1 1 8.33981 1.39669 9.42721
89 3 9.89223 0.685102 8.48415
10 1 2.61821 3.90007 9.69769
12 1 1.64182 7.75349 9.85086
44 3 2.47023 5.81994 8.82582
54 3 0.73552 7.73265 8.25566
20 1 3.98566 6.0177 9.92201
56 3 2.90907 8.29951 7.92187
62 3 3.78217 7.69798 10.688
74 3 5.22516 8.86527 8.81123
42 2 6.11024 5.89581 8.99996
45 3 8.41229 8.51633 9.461
57 3 4.88873 6.3776 7.90198
82 3 5.77059 6.77742 10.4233
94 3 7.65316 6.02718 8.73632
43 3 5.55957 4.42032 9.28658
34 2 5.21117 8.18497 10.1379
38 2 0.110033 4.73725 10.2645
27 1 9.323 6.61862 8.386
77 3 10.9327 8.29533 9.03539
92 3 12.466 5.46689 9.10388
135 5 12.0645 7.0205 7.59339
80 3 9.9028 5.27044 10.3285
19 1 13.1316 11.584 9.90799
96 3 0.62442 10.5437 8.68788
138 5 3.06996 10.3582 7.90624
60 3 3.34822 11.0514 9.84866
78 3 7.55522 12.8628 9.1025
158 6 7.74344 8.9501 7.53891
7 1 5.53019 10.5228 9.73012
31 2 7.63838 11.5613 7.99916
81 3 5.27054 12.9224 10.3017
98 3 7.75112 10.6822 9.57402
6 1 7.8342 11.9899 10.6499
14 1 12.0277 9.83324 8.60724
15 1 9.53596 10.1591 9.5355
88 3 11.1991 11.3755 9.38995
146 6 11.1922 11.7676 7.36372
36 2 2.31353 1.59927 12.9932
59 3 0.82272 1.56034 12.5705
71 3 2.62963 2.74861 13.7996
86 3 2.79415 0.101876 13.1668
93 3 2.9546 2.09316 11.3433
4 1 3.98997 2.9054 12.573
41 2 6.82308 2.36491 11.9666
55 3 7.59173 2.20654 13.3585
63 3 5.38316 1.89795 11.9866
73 3 6.75943 3.83712 11.6739
95 3 7.95024 1.51053 11.1131
22 1 10.2401 3.25631 10.2303
24 1 9.43133 2.857 13.345
21 1 12.5807 2.39949 11.8548
40 2 10.6036 0.3393 11.8119
47 3 10.9474 1.3918 10.8336
53 3 10.1192 0.997853 13.1295
58 3 12.24 4.0156 11.1985
65 3 9.43535 4.48801 12.6713
75 3 0.879563 5.93915 11.0334
17 1 12.3211 6.33278 11.6838
51 3 3.47394 5.05459 11.5361
52 3 12.8093 8.11394 11.2413
83 3 2.8011 7.12424 13.0418
37 2 3.65293 6.03693 12.7045
11 1 6.82294 5.62604 12.2252
46 3 5.22285 5.99991 12.9041
90 3 8.16876 6.34577 11.5943
28 1 7.93903 8.88552 10.9978
5 1 10.4638 8.2735 11.0152
33 2 9.55212 5.68248 11.7589
72 3 10.5682 6.77918 12.2113
2 1 1.35808 11.5098 13.0967
29 2 2.3815 10.5658 11.0826
35 2 0.185496 9.36016 11.8488
50 3 3.36793 10.6197 12.2221
87 3 1.46008 11.8362 11.2602
91 3 1.52294 9.39149 10.827
64 3 0.794759 9.7041 13.1898
85 3 5.81669 9.18148 11.1576
13 1 5.36513 12.1445 12.164
16 1 8.21886 0.380456 12.8329
3 1 3.17753 8.72076 12.0848
97 3 7.11359 12.0214 12.3491
70 3 12.5056 10.4094 11.1141
25 1 10.8776 10.9081 11.6364
49 3 9.58975 9.7018 11.3152
66 3 11.8466 12.5768 12.0982
84 3 9.48903 12.4512 11.3192
ITEM: TIMESTEP
3500
ITEM: NUMBER OF ATOMS
178
ITEM: BOX BOUNDS pp pp pp
0.0000000000000000e+00 1.3168533823700001e+01
0.0000000000000000e+00 1.3168533823700001e+01
0.0000000000000000e+00 3.5381309593600001e+01
ITEM: ATOMS id type x y z
143 6 4.04136 0.65426 0.51341
149 6 1.63334 1.55863 1.64751
163 7 3.8075 2.81027 3.00329
101 4 2.953 3.37595 0.696296
126 5 1.62295 4.25628 3.52879
104 4 8.16442 2.7536 1.35532
147 6 5.92607 1.0046 2.99857
159 7 5.53338 2.7647 0.863235
166 7 7.17484 0.410448 0.744962
109 4 6.29168 3.61009 3.46486
127 5 10.681 2.44541 2.31407
144 6 13.1503 3.74499 1.13826
151 6 12.9579 1.76714 3.75165
148 6 9.65098 0.178149 1.21646
105 4 2.06232 5.36932 1.21959
120 5 2.69954 7.92762 1.61795
124 5 0.0554525 6.54038 2.70311
122 5 4.5926 5.41973 1.94474
102 4 6.27369 7.27042 1.07452
123 5 7.78574 5.00537 1.38268
165 7 4.791 8.00095 3.33631
110 4 7.14758 6.57049 3.61389
145 6 8.89528 7.36681 1.13326
103 4 10.6386 4.85076 1.35682
125 5 11.6339 8.46228 2.0502
108 4 3.32935 13.0669 3.2008
106 4 1.85884 12.209 1.00712
128 5 2.79414 10.1621 2.76613
141 6 0.444961 10.0402 1.41668
113 4 0.650798 12.2177 3.16897
142 6 4.75004 9.43342 0.956721
100 4 5.46153 11.8662 1.7579
107 4 7.08635 9.42502 1.93367
129 5 8.14879 11.7249 3.02353
167 7 12.4096 0.81547 1.20957
115 4 11.3095 11.4006 1.85819
121 5 9.64186 9.79612 0.905102
117 4 2.91126 3.75943 5.96274
130 5 2.08402 1.0639 5.32335
131 5 4.73998 1.73987 5.43091
134 5 7.14815 2.18221 5.83045
171 7 8.51864 1.24486 3.63539
177 7 0.377028 3.18877 5.88458
175 7 12.5162 0.209465 5.94308
178 7 10.6049 2.24278 5.26402
172 7 8.91045 4.04601 3.95461
139 6 9.20919 0.252079 6.22496
136 5 2.96937 6.65244 6.8367
152 6 0.716945 5.7913 5.83951
153 6 0.764952 8.9148 6.48033
168 7 2.57791 6.97607 4.05757
112 4 4.53138 5.47917 4.61055
133 5 5.65085 7.32937 6.08541
156 6 7.54427 5.0065 5.90626
132 5 12.0204 4.49513 4.01895
169 7 9.93144 6.36199 3.47568
137 5 10.7932 5.12796 6.1469
150 6 11.8598 7.52644 4.84246
173 7 8.96746 7.34595 5.84082
161 7 0.725609 9.08227 3.81418
99 4 0.97713 11.818 7.4039
111 4 1.73571 11.4189 5.2422
164 7 3.76013 9.13815 5.44507
176 7 3.95339 12.2674 5.9382
114 4 5.18739 10.8328 3.95823
155 6 6.71126 12.5351 5.26556
162 7 5.80847 10.3869 6.93879
170 7 7.04285 9.23949 4.80023
118 4 10.6293 9.06067 6.70847
116 4 10.8801 12.8829 3.60421
154 6 9.61307 9.2847 3.63185
157 6 11.9092 10.5419 5.04492
174 7 8.91183 10.6848 5.93466
32 2 3.44099 0.612791 7.81366
61 3 0.425471 3.75407 9.50045
68 3 3.11843 0.931541 9.17268
79 3 0.299582 0.864924 9.75334
140 6 0.995599 1.37305 7.78435
69 3 3.55946 4.0307 8.00995
26 1 4.68837 1.02876 10.4268
8 1 1.84914 0.381599 10.9836
23 1 7.40693 2.95023 9.61356
39 2 4.95427 3.39915 8.33037
76 3 5.3151 2.10676 9.0123
119 5 5.89939 0.261859 7.52988
30 2 11.7845 2.10911 7.24032
48 3 9.00799 2.70817 8.97125
67 3 11.2773 2.70943 8.61281
160 7 9.18203 3.22742 7.09113
18 1 12.3311 4.47991 8.0143
9 1 11.5879 0.831982 9.02152
1 1 8.97952 0.74415 9.63942
89 3 10.2969 13.0307 8.74681
10 1 2.36165 4.10779 9.49295
12 1 1.74306 7.0815 10.4486
44 3 2.42994 5.79603 9.15789
54 3 0.484517 7.83829 8.94021
20 1 3.84106 5.94734 10.1597
56 3 2.29047 8.38628 7.76063
62 3 3.67401 7.71824 10.7888
74 3 4.96453 8.88212 8.71824
42 2 6.09517 5.87428 8.97211
45 3 8.00125 7.92817 9.38598
57 3 4.95181 6.58302 8.22264
82 3 6.18714 6.73848 10.2518
94 3 7.45405 5.27749 8.46462
43 3 5.42639 4.48316 9.47404
34 2 4.94369 8.22201 10.1594
38 2 13.1045 5.04181 10.2872
27 1 8.87116 6.55139 8.58291
77 3 11.0419 8.25016 9.42712
92 3 12.1949 5.86677 9.41062
135 5 11.9843 7.29526 7.56949
80 3 9.54523 5.16025 10.2023
19 1 0.176303 11.5935 10.2155
96 3 1.31865 10.8471 9.14404
138 5 3.18475 10.3665 7.63986
60 3 3.49475 9.80881 9.72963
78 3 7.51315 12.8268 8.94377
158 6 7.91226 9.09002 7.68445
7 1 5.23382 10.6303 9.9745
31 2 7.73325 11.8261 7.7716
81 3 5.2118 12.5103 10.5412
98 3 7.72148 10.4449 9.66258
6 1 7.09701 11.7714 10.773
14 1 12.8448 9.52344 9.13994
15 1 9.79004 9.79747 9.24319
88 3 11.7254 11.2378 9.45852
146 6 11.0647 11.5898 7.34658
36 2 2.33672 1.6452 12.9139
59 3 0.782255 1.68505 12.4414
71 3 2.90157 2.69819 13.6497
86 3 2.70403 0.0874119 13.2681
93 3 2.91408 2.06233 11.2597
4 1 3.67169 3.51184 12.1994
41 2 6.66104 2.02596 12.0852
55 3 7.48641 1.88626 13.3538
63 3 5.15137 1.82406 12.3109
73 3 7.08113 3.51812 11.4942
95 3 7.26636 1.24651 11.0034
22 1 10.4669 3.69959 10.3614
24 1 8.97019 2.78084 13.0355
21 1 12.503 2.30754 11.3958
40 2 10.4132 0.263103 11.9735
47 3 10.3512 1.65682 11.0263
53 3 10.066 0.540711 13.3025
58 3 12.1171 4.19008 11.1512
65 3 9.48968 4.33846 12.6899
75 3 1.21752 5.35492 11.1836
17 1 12.4584 6.08313 12.2341
51 3 4.0569 5.08786 11.7898
52 3 13.1207 7.65233 12.1455
83 3 2.98585 6.70763 13.5381
37 2 4.1151 5.92377 13.2361
11 1 6.55755 5.42128 11.5997
46 3 5.51967 5.49839 13.5548
90 3 8.22643 6.57904 11.8959
28 1 7.5562 8.81492 10.9763
5 1 11.0549 8.45264 11.2475
33 2 9.46836 5.69591 11.6563
72 3 10.7808 6.79341 11.9745
2 1 1.65568 11.5461 13.0911
29 2 2.42453 10.2843 10.7639
35 2 0.385399 9.03924 11.9617
50 3 3.13167 10.1403 12.3178
87 3 1.63799 11.6048 11.2808
91 3 1.4887 8.94456 10.8643
64 3 0.886331 9.61371 13.4289
85 3 5.75837 9.21907 11.0585
13 1 4.87793 12.6341 12.5974
16 1 7.90181 0.121565 13.0678
3 1 2.67026 8.6944 13.531
97 3 6.75884 12.1313 12.5771
70 3 12.4646 9.90774 11.252
25 1 10.5143 11.3444 11.0024
49 3 9.58993 9.60921 11.1091
66 3 11.6768 12.6821 11.6125
84 3 9.20475 12.7495 11.2881
ITEM: TIMESTEP
3600
ITEM: NUMBER OF ATOMS
178
ITEM: BOX BOUNDS pp pp pp
0.0000000000000000e+00 1.3168533823700001e+01
0.0000000000000000e+00 1.3168533823700001e+01
0.0000000000000000e+00 3.5381309593600001e+01
ITEM: ATOMS id type x y z
143 6 4.16886 0.652165 0.540961
149 6 1.69065 1.69635 1.40948
163 7 3.84465 2.71369 3.10064
101 4 3.12465 3.65908 0.645977
126 5 1.76611 4.04659 3.58901
104 4 8.0623 2.56366 1.44338
147 6 5.8503 0.860358 3.06793
159 7 5.4911 2.95494 0.96597
166 7 6.99114 0.551466 0.565039
109 4 6.48143 3.69893 3.5593
127 5 10.5132 2.59133 2.15421
144 6 12.9505 3.86419 1.14038
151 6 12.8757 1.79532 3.41515
148 6 9.61903 13.1359 0.945094
105 4 2.13883 5.53313 1.4395
120 5 2.50293 7.84984 1.7339
124 5 13.1337 6.54477 2.4658
122 5 4.60231 5.462 2.14606
102 4 6.61121 7.22616 0.803751
123 5 7.85989 5.10793 1.70826
165 7 4.95753 8.0097 3.25705
110 4 7.24422 6.78532 3.7417
145 6 9.23376 7.5239 1.3465
103 4 10.7043 5.2679 1.35028
125 5 11.6 8.39801 2.03275
108 4 3.3535 13.0323 3.12732
106 4 1.99636 12.1237 0.903534
128 5 2.89174 10.4631 2.91843
141 6 0.417689 10.1978 1.13465
113 4 0.310764 12.1693 3.16099
142 6 4.73128 9.38119 0.924953
100 4 5.49024 11.798 1.39838
107 4 7.20615 9.18983 2.26353
129 5 8.14022 11.7603 3.09658
167 7 12.4054 0.572734 1.0534
115 4 11.4387 11.1719 1.46621
121 5 9.29393 10.3023 1.11079
117 4 2.82374 4.25056 5.77402
130 5 1.82538 0.953523 5.01196
131 5 4.58049 1.7392 5.37189
134 5 7.38771 2.44192 5.59758
171 7 8.62545 1.26945 3.34542
177 7 0.246228 2.9853 5.97143
175 7 12.4039 0.119468 5.86062
178 7 10.631 2.39951 5.16888
172 7 9.0316 3.92651 3.99258
139 6 9.37877 0.26817 6.10526
136 5 3.08234 6.75583 6.73747
152 6 0.522271 5.95754 5.82272
153 6 0.748277 8.57146 6.60878
168 7 2.56615 6.87041 4.23314
112 4 4.91931 5.20621 4.95928
133 5 5.81669 7.39478 6.25266
156 6 7.60715 5.26942 6.06457
132 5 12.1246 4.55237 3.78929
169 7 9.87181 6.21284 3.5439
137 5 10.5425 5.0064 6.05403
150 6 11.7956 7.64998 4.95424
173 7 8.97805 7.60435 5.88323
161 7 0.829845 8.97943 3.76298
99 4 0.673584 11.8498 7.13449
111 4 1.58898 11.0624 5.22776
164 7 3.54623 9.15202 5.36585
176 7 3.95188 11.9931 5.72458
114 4 5.35476 10.7297 3.64291
155 6 6.79802 12.517 5.2986
162 7 5.76523 10.6119 6.77704
170 7 7.08229 9.39567 5.08699
118 4 10.7218 9.11547 6.88739
116 4 10.761 13.025 3.53258
154 6 9.56466 9.22648 3.777
157 6 12.0125 10.6651 4.99601
174 7 9.02041 10.9193 6.06957
32 2 2.80805 13.1626 7.64814
61 3 1.43399 3.61993 9.87978
68 3 2.93312 0.706516 9.07055
79 3 0.289245 0.676157 9.88868
140 6 0.727585 1.37721 7.83159
69 3 3.29548 3.25276 7.80659
26 1 4.34146 0.996499 10.2724
8 1 1.85188 0.104883 10.6084
23 1 6.88165 3.25538 9.88983
39 2 4.74508 2.86696 8.14113
76 3 5.43479 1.81977 9.10217
119 5 5.79431 0.418309 7.61017
30 2 11.5874 2.09323 7.16773
48 3 8.78476 3.03803 9.29722
67 3 11.9908 2.39851 8.76351
160 7 9.09839 3.27243 7.33066
18 1 12.0274 3.79345 7.97756
9 1 11.6095 0.525874 8.38983
1 1 8.45309 1.01897 9.15638
89 3 10.3056 12.8182 9.17023
10 1 1.74484 4.36308 8.38984
12 1 1.51976 7.06355 10.0074
44 3 2.60265 5.88218 8.86548
54 3 0.568125 8.08595 8.90839
20 1 3.89383 5.51385 10.4444
56 3 3.01726 8.26622 8.16777
62 3 3.87006 7.78769 10.5513
74 3 5.83417 8.37214 8.95602
42 2 5.94959 5.44221 8.76765
45 3 8.25607 8.01743 9.49117
57 3 5.08625 6.07133 7.73762
82 3 5.95826 6.13826 10.3716
94 3 7.38117 5.09894 8.57178
43 3 5.1648 4.13434 9.31208
34 2 5.44076 7.8186 10.265
38 2 0.313314 4.46257 10.416
27 1 9.18158 6.69987 8.71703
77 3 11.0375 8.21019 9.89649
92 3 12.4171 5.03969 9.40592
135 5 12.0588 6.61757 7.82359
80 3 9.33098 5.64134 10.2905
19 1 12.8358 12.0251 10.3871
96 3 1.0514 10.33 9.11954
138 5 3.09477 10.4889 7.73968
60 3 3.40606 10.5578 9.79042
78 3 7.45235 12.7654 9.06811
158 6 7.73092 9.00408 7.66909
7 1 5.42201 10.6699 9.86375
31 2 7.72389 11.6034 8.12868
81 3 5.073 12.452 10.5448
98 3 8.04878 10.4705 9.25638
6 1 7.09873 12.4114 11.1248
14 1 12.5798 9.43035 9.84569
15 1 9.61706 9.23654 9.57661
88 3 11.5931 10.9028 9.6239
146 6 10.8859 11.5316 7.57796
36 2 2.06617 1.40256 12.6159
59 3 0.564946 1.06373 12.5503
71 3 2.60665 2.43934 13.472
86 3 2.96848 0.0450572 12.8908
93 3 2.53272 1.8022 11.1134
4 1 3.76186 3.14517 12.0401
41 2 6.83155 2.10341 11.9185
55 3 7.48699 2.2129 13.2681
63 3 5.11395 1.66109 11.8897
73 3 6.46402 3.67754 11.5085
95 3 7.70864 1.45258 10.9276
22 1 10.269 3.86024 10.5997
24 1 9.45433 2.61225 12.9828
21 1 12.4629 1.73984 11.4233
40 2 10.313 0.435523 11.8464
47 3 10.6883 1.75417 11.0681
53 3 9.80911 0.831605 13.1822
58 3 12.5978 3.60845 11.2551
65 3 9.70423 4.07146 12.2856
75 3 0.984244 5.60511 11.2856
17 1 13.0579 6.17044 12.8885
51 3 3.76057 5.07339 12.1152
52 3 0.123647 7.75453 13.5365
83 3 3.76161 7.48175 13.2631
37 2 4.31371 5.94865 13.1801
11 1 6.75024 5.42978 12.2636
46 3 5.68394 5.5427 13.5696
90 3 8.46155 6.54118 12.5139
28 1 8.18605 8.15879 11.6917
5 1 10.9825 8.00962 11.8731
33 2 9.68372 5.60022 11.9207
72 3 11.0402 6.32701 11.9464
2 1 2.27983 11.3677 13.0193
29 2 1.95387 10.4088 10.3704
35 2 0.422432 9.02614 12.8682
50 3 3.98395 10.5484 12.5981
87 3 1.46467 11.4236 11.2584
91 3 1.81231 8.90712 11.0963
64 3 1.23017 10.1345 13.5188
85 3 6.19755 8.7525 11.3024
13 1 4.74941 12.4884 12.7642
16 1 8.20721 12.7408 13.4204
3 1 3.52672 8.79589 12.0113
97 3 6.74313 12.1149 12.7898
70 3 12.2811 9.59312 12.0952
25 1 10.2803 11.0967 11.3337
49 3 9.3348 9.37187 11.6471
66 3 11.5546 12.5122 11.7295
84 3 8.98847 12.3829 11.5652
ITEM: TIMESTEP
3700
ITEM: NUMBER OF ATOMS
178
ITEM: BOX BOUNDS pp pp pp
0.0000000000000000e+00 1.3168533823700001e+01
0.0000000000000000e+00 1.3168533823700001e+01
0.0000000000000000e+00 3.5381309593600001e+01
ITEM: ATOMS id type x y z
143 6 4.23854 1.05727 0.606633
149 6 1.61013 1.64965 1.44623
163 7 3.8389 2.69138 3.03408
101 4 2.95304 3.5769 0.63781
126 5 1.4798 3.95816 3.33097
104 4 8.10858 2.7232 1.1209
147 6 5.96597 0.792995 3.1336
159 7 5.63229 3.20355 1.06892
166 7 7.12043 0.338206 0.738585
109 4 6.55997 3.66651 3.6377
127 5 10.6188 2.43306 1.84298
144 6 13.0218 3.87577 1.10189
151 6 12.768 1.77288 3.47509
148 6 9.60477 0.0287712 0.698033
105 4 1.9037 5.65995 1.43689
120 5 2.56968 7.97723 2.03015
124 5 0.000349764 6.54827 2.65252
122 5 4.54556 5.48972 2.35211
102 4 6.456 7.12223 1.00971
123 5 7.98071 5.22784 1.53207
165 7 4.82071 7.97597 3.53557
110 4 7.11172 6.69553 3.6177
145 6 9.24779 7.46593 1.15059
103 4 10.7055 5.2748 1.23606
125 5 11.594 8.77727 2.25315
108 4 3.3466 13.0734 3.13955
106 4 2.02612 12.4509 0.995381
128 5 3.15892 10.532 2.65178
141 6 0.691803 10.2428 1.01302
113 4 0.465647 12.1436 3.21687
142 6 4.91757 9.17081 0.928717
100 4 5.58171 11.6007 1.19101
107 4 7.26322 9.29687 2.20275
129 5 7.93126 11.8084 3.11598
167 7 12.5353 0.241523 1.13248
115 4 11.4369 11.2038 1.52764
121 5 9.1935 10.2477 1.058
117 4 2.84198 4.02313 5.67196
130 5 1.67744 0.847071 5.24185
131 5 4.73457 1.97184 5.55456
134 5 7.42884 2.10057 5.82606
171 7 8.50992 1.25601 3.30939
177 7 0.064087 3.0557 5.8883
175 7 12.171 0.241731 5.69476
178 7 10.7165 2.35583 4.97938
172 7 9.02818 3.99235 4.02147
139 6 9.61137 0.273242 6.01243
136 5 2.78226 6.70551 6.75072
152 6 0.5494 5.69612 5.46652
153 6 0.938291 8.77093 6.5423
168 7 2.70173 6.51925 4.32723
112 4 5.13537 5.26815 4.97321
133 5 5.47276 7.63697 6.17668
156 6 7.70749 5.20838 5.95282
132 5 11.7604 4.59351 3.65082
169 7 9.74875 6.53327 3.76508
137 5 10.6272 5.31522 6.27606
150 6 11.752 7.73846 5.13149
173 7 8.93283 7.61621 6.2303
161 7 0.663302 8.98572 3.78384
99 4 0.41809 11.6155 7.07362
111 4 1.44718 11.2686 5.07566
164 7 3.46271 9.25989 5.20011
176 7 3.98444 12.2165 5.51913
114 4 5.41561 11.0256 3.58293
155 6 6.98288 12.6337 5.44499
162 7 5.66817 10.6166 6.78091
170 7 6.9725 9.39837 4.8697
118 4 10.7227 8.89175 7.00263
116 4 10.8474 12.9316 3.20841
154 6 9.607 9.3323 3.79057
157 6 11.8144 10.5577 5.34995
174 7 8.9629 10.7676 6.12422
32 2 2.49118 12.8378 7.47201
61 3 1.66843 3.79125 9.75099
68 3 2.28413 0.343937 8.95414
79 3 13.1413 0.493038 9.84076
140 6 0.610447 1.18021 7.77837
69 3 3.29505 3.30464 7.65026
26 1 4.22422 0.342634 10.3006
8 1 1.62268 13.0612 10.4893
23 1 7.31665 3.18797 9.67342
39 2 4.69324 3.0352 8.29549
76 3 5.07383 1.55557 8.96781
119 5 5.66477 0.103885 7.52623
30 2 11.5754 2.02821 7.19509
48 3 8.98073 2.91364 9.30495
67 3 11.4199 2.33797 8.75005
160 7 9.30638 3.06006 7.11729
18 1 11.7137 3.86018 7.8854
9 1 11.3027 0.645517 8.28574
1 1 8.85272 1.02621 9.69398
89 3 10.0335 12.7663 9.15386
10 1 1.41285 5.13544 8.5237
12 1 1.93059 7.65412 9.92911
44 3 2.75975 6.05187 8.93762
54 3 0.715448 7.36371 8.55343
20 1 3.39499 4.8698 10.0294
56 3 3.07645 8.47978 7.79662
62 3 3.88056 7.78144 10.4079
74 3 5.47213 8.35147 8.64206
42 2 5.88237 5.68113 9.02116
45 3 8.18865 7.71237 9.40142
57 3 5.13435 6.28743 7.87197
82 3 5.85329 6.33427 10.4437
94 3 7.38883 5.12298 8.9442
43 3 5.05183 4.23488 9.32458
34 2 5.37287 7.76867 10.1444
38 2 0.460302 4.42119 10.5467
27 1 9.173 6.00439 8.961
77 3 11.7155 7.71219 9.66779
92 3 12.5965 4.71438 9.41922
135 5 12.075 6.73623 7.78529
80 3 10.5705 5.48562 10.2897
19 1 12.5606 11.2207 11.0471
96 3 0.99333 10.1951 9.06353
138 5 2.8881 10.5939 7.47337
60 3 3.35617 10.3876 9.7556
78 3 7.67185 0.0863991 8.75739
158 6 7.59715 9.08599 7.88496
7 1 5.28491 10.8058 9.64879
31 2 7.95842 11.9106 8.11756
81 3 5.26982 12.2329 10.774
98 3 7.97971 10.8665 9.45228
6 1 7.16913 12.5676 11.1155
14 1 12.5998 9.5522 8.54557
15 1 9.46589 9.85024 9.90405
88 3 11.3003 10.305 9.7297
146 6 11.1189 11.5524 7.81137
36 2 2.36782 0.935598 12.6564
59 3 0.933917 0.675784 12.2758
71 3 2.35652 2.00251 13.7204
86 3 3.24887 12.8054 12.9678
93 3 2.86385 1.49867 11.1448
4 1 3.48511 2.84746 12.53
41 2 6.56917 2.38156 11.9041
55 3 7.44844 2.40269 13.2931
63 3 5.11285 2.13736 12.1183
73 3 7.0087 3.73697 11.534
95 3 7.49497 1.47891 10.9281
22 1 10.4958 3.1052 10.2231
24 1 9.41628 2.41342 12.8723
21 1 12.9428 1.51472 11.4558
40 2 10.3487 0.12325 12.3275
47 3 10.6359 1.49849 11.6807
53 3 9.56984 0.643232 13.6298
58 3 0.024498 3.38068 11.6033
65 3 9.6725 4.02594 12.2077
75 3 0.845494 5.9203 11.1491
17 1 0.467394 7.04942 12.4555
51 3 3.67069 5.26576 11.9804
52 3 0.312256 7.87736 13.7955
83 3 3.8857 7.58229 13.2346
37 2 4.43791 6.13005 12.896
11 1 7.5685 5.09516 12.5974
46 3 5.86636 5.796 13.1278
90 3 8.80496 6.5368 12.1476
28 1 8.05648 7.86315 11.2584
5 1 11.0904 8.01721 11.6649
33 2 10.0798 5.4498 11.7085
72 3 11.2244 6.16299 12.4706
2 1 2.28978 11.2477 13.1717
29 2 2.02852 10.1442 10.4476
35 2 0.00582095 9.34147 13.492
50 3 4.07064 10.4531 12.6802
87 3 1.42133 11.369 11.4194
91 3 1.371 8.93794 11.0493
64 3 0.777493 10.5092 14.076
85 3 6.42009 8.75148 10.8808
13 1 5.14587 12.0097 12.9966
16 1 7.71108 0.556003 14.0077
3 1 4.6092 8.779 12.1967
97 3 6.72741 12.7347 12.9802
70 3 11.942 9.5858 12.6564
25 1 10.3476 10.831 12.6215
49 3 9.74585 9.32818 11.6385
66 3 11.4266 12.3046 12.0911
84 3 9.11422 12.3357 11.6453
ITEM: TIMESTEP
3800
ITEM: NUMBER OF ATOMS
178
ITEM: BOX BOUNDS pp pp pp
0.0000000000000000e+00 1.3168533823700001e+01
0.0000000000000000e+00 1.3168533823700001e+01
0.0000000000000000e+00 3.5381309593600001e+01
ITEM: ATOMS id type x y z
143 6 4.29153 1.16819 0.630153
149 6 1.53785 1.67698 1.48082
163 7 3.88396 2.88638 3.1483
101 4 2.82473 3.65514 0.911562
126 5 1.49501 4.14775 3.38792
104 4 8.32886 2.66422 1.14853
147 6 5.80701 0.879544 3.23959
159 7 5.89092 3.10877 1.0589
166 7 7.21537 0.501737 1.00133
109 4 6.35279 3.73311 3.39412
127 5 10.9546 2.38349 1.94897
144 6 12.9864 3.91845 0.908126
151 6 12.893 1.64802 3.46912
148 6 9.82776 13.1624 0.795119
105 4 1.81817 5.69138 1.11523
120 5 2.64044 8.01994 2.06112
124 5 13.1073 6.58155 2.72999
122 5 4.39137 5.39553 2.16745
102 4 6.21447 6.76425 1.2143
123 5 7.83805 5.08602 1.53099
165 7 4.94811 8.04795 3.49637
110 4 7.08113 6.64525 3.86991
145 6 9.16649 7.5923 1.24857
103 4 10.4322 5.07032 1.46235
125 5 11.7288 8.58236 2.36486
108 4 3.22113 0.130681 2.97586
106 4 2.21043 12.4165 0.75003
128 5 2.87433 10.5899 2.61732
141 6 0.623347 10.3475 1.22048
113 4 0.35759 12.1013 3.23873
142 6 4.91862 9.07599 1.01369
100 4 5.41829 11.79 1.52642
107 4 7.22999 9.15086 1.99904
129 5 8.24991 11.7633 3.00464
167 7 12.5771 0.144872 1.03154
115 4 11.3597 11.1295 1.41088
121 5 9.43569 10.0983 0.921231
117 4 2.66583 3.82248 5.79264
130 5 2.03532 1.24442 5.18885
131 5 4.7957 1.88664 5.49813
134 5 7.47216 2.29997 5.58956
171 7 8.60524 1.32803 3.37269
177 7 0.175236 3.07661 5.7557
175 7 12.4617 0.0465413 5.69196
178 7 10.4688 2.23829 4.88634
172 7 8.99261 4.16705 3.74972
139 6 9.60616 12.8915 5.80566
136 5 2.79925 6.55869 6.78001
152 6 0.419983 5.76733 5.72547
153 6 0.738529 8.93613 6.34914
168 7 2.75885 6.57864 4.18571
112 4 4.79194 5.12603 5.06026
133 5 5.38684 7.45662 6.27447
156 6 7.68973 4.92604 5.9291
132 5 12.0944 4.52206 3.77143
169 7 9.73418 6.62306 3.57345
137 5 10.5698 5.09893 5.80445
150 6 11.6791 7.72423 5.11043
173 7 8.66719 7.54099 5.99476
161 7 0.879356 9.28176 3.82521
99 4 0.607296 11.6358 7.20267
111 4 1.91338 11.6599 5.32233
164 7 3.40228 9.43926 5.05739
176 7 4.19752 12.5244 5.66014
114 4 5.39873 10.9361 3.54811
155 6 7.00278 12.4901 5.54836
162 7 5.59486 10.5553 6.67061
170 7 6.96382 9.28575 5.01225
118 4 10.3328 8.97708 7.31204
116 4 10.7524 12.7797 3.25035
154 6 9.39771 9.40906 3.7924
157 6 11.6431 10.6686 5.36518
174 7 8.86671 10.587 6.43109
32 2 2.58429 13.1438 7.54318
61 3 1.94322 3.49142 10.1907
68 3 2.39065 0.754144 8.95396
79 3 0.336829 0.985281 9.9861
140 6 0.385096 0.955887 7.84173
69 3 3.81675 3.87537 7.87513
26 1 5.00309 0.858553 11.0091
8 1 1.71646 13.0132 10.4008
23 1 7.52292 3.26073 9.17817
39 2 4.77115 2.85687 8.25036
76 3 5.08804 1.76752 9.19911
119 5 5.26703 0.126947 7.81685
30 2 11.7272 1.96243 6.84363
48 3 9.13432 2.37864 9.18972
67 3 11.4143 2.49995 8.43823
160 7 9.49471 3.0628 7.00388
18 1 11.8921 4.58281 8.41189
9 1 10.7856 0.828039 7.87396
1 1 9.07257 0.5871 9.80862
89 3 10.93 13.029 9.28608
10 1 2.15558 4.01859 8.38209
12 1 1.65166 7.25439 9.83621
44 3 2.80001 5.94354 8.93577
54 3 1.28479 7.57876 8.09274
20 1 3.53316 4.59707 10.1126
56 3 3.56564 8.36204 7.48201
62 3 3.67137 7.65692 10.3695
74 3 5.30531 8.43849 8.68371
42 2 5.99216 5.63295 8.83057
45 3 7.95488 8.13906 9.4554
57 3 5.12332 5.73597 7.54703
82 3 5.8242 6.68119 10.0752
94 3 7.47184 5.22517 8.84739
43 3 5.56654 4.23191 9.43925
34 2 5.11343 8.01479 10.0214
38 2 0.827299 4.46593 10.6326
27 1 9.05463 6.29167 8.64813
77 3 12.4954 7.90099 9.60176
92 3 0.0649054 5.18221 9.25564
135 5 12.2233 7.10155 7.6977
80 3 10.2384 5.38366 9.74694
19 1 12.6239 11.3565 11.5212
96 3 1.01732 10.5002 8.89353
138 5 3.22921 10.5301 7.57916
60 3 3.38846 10.2221 9.72864
78 3 7.17626 13.0694 8.95841
158 6 7.4736 9.27837 7.85391
7 1 5.12624 10.624 10.0636
31 2 7.51509 11.7886 8.0876
81 3 5.25966 12.303 10.8706
98 3 7.46006 10.7943 9.66858
6 1 7.08571 12.225 11.157
14 1 12.4985 9.64455 8.67108
15 1 9.1468 10.0097 9.69749
88 3 11.8043 10.8551 10.0167
146 6 11.0253 11.4859 7.94414
36 2 2.34837 1.03112 12.8027
59 3 0.919526 0.619773 12.64
71 3 2.47726 2.27349 13.7406
86 3 2.92409 12.875 13.3665
93 3 3.02873 1.26012 11.4173
4 1 3.6057 2.80926 12.3656
41 2 7.04119 2.44571 11.8905
55 3 7.85118 2.47476 13.1348
63 3 5.45258 2.33561 12.2132
73 3 7.65958 3.45568 10.9042
95 3 7.21818 1.08376 11.1793
22 1 10.5387 2.96923 10.4523
24 1 9.7311 2.52807 13.22
21 1 13.082 1.71087 11.7367
40 2 10.0371 0.0545827 12.36
47 3 10.1747 1.18879 11.4282
53 3 9.52198 0.493159 13.6346
58 3 12.9629 3.48889 11.2873
65 3 10.411 4.2746 12.0199
75 3 1.34903 5.63747 11.4026
17 1 0.505558 6.57495 12.7394
51 3 4.04961 4.51411 11.8512
52 3 0.765454 8.20585 13.9932
83 3 3.66119 6.68298 13.0312
37 2 4.60424 5.57969 12.7359
11 1 7.14429 5.25193 11.4489
46 3 6.05502 5.63817 12.8708
90 3 8.64361 6.43513 11.5894
28 1 7.85459 8.05023 11.2578
5 1 11.3974 8.37652 11.3808
33 2 10.1 5.63014 11.2485
72 3 11.1741 6.58521 11.621
2 1 2.15199 11.3667 12.8694
29 2 1.81273 10.1043 10.1359
35 2 0.00726007 9.55495 13.7937
50 3 3.64693 10.3745 12.479
87 3 1.14047 11.1608 11.3014
91 3 1.53539 8.84645 10.8636
64 3 0.713745 10.8088 13.8727
85 3 5.7765 9.00447 11.005
13 1 4.59495 11.696 12.8488
16 1 7.71861 0.658042 13.3363
3 1 3.7326 8.46512 12.5097
97 3 6.33987 12.5183 13.4023
70 3 12.0243 9.47902 12.8203
25 1 10.1114 10.7889 12.4949
49 3 9.66409 9.56101 11.2608
66 3 11.0882 12.2346 12.5265
84 3 9.03576 12.0727 11.4483
ITEM: TIMESTEP
3900
ITEM: NUMBER OF ATOMS
178
ITEM: BOX BOUNDS pp pp pp
0.0000000000000000e+00 1.3168533823700001e+01
0.0000000000000000e+00 1.3168533823700001e+01
0.0000000000000000e+00 3.5381309593600001e+01
ITEM: ATOMS id type x y z
143 6 4.16969 1.04947 0.650768
149 6 1.59593 1.7582 1.30525
163 7 3.99128 2.70591 3.0973
101 4 3.03202 3.72728 0.701302
126 5 1.78688 4.25978 3.43698
104 4 8.60251 3.04858 1.2019
147 6 5.81833 0.809308 3.36621
159 7 5.75904 2.90097 1.1169
166 7 7.18568 0.468579 0.888617
109 4 6.63325 3.55262 3.42912
127 5 10.8044 2.19771 2.11781
144 6 13.0541 3.99892 1.17845
151 6 13.0525 1.66483 3.5494
148 6 9.70183 0.00879363 0.93066
105 4 1.7386 5.8232 1.09774
120 5 2.46964 8.07341 1.88189
124 5 13.1385 6.76085 2.87093
122 5 4.32248 5.47637 2.28473
102 4 5.95771 7.38332 0.91396
123 5 7.85382 5.19619 1.32419
165 7 4.75556 7.92272 3.53228
110 4 7.09747 6.48997 3.50865
145 6 9.05729 7.49179 1.27076
103 4 10.6167 4.82389 1.16918
125 5 11.6121 8.64832 2.43113
108 4 3.28882 0.147137 3.24795
106 4 2.1761 12.2008 0.772129
128 5 3.14302 10.5756 2.78222
141 6 0.435043 10.3819 1.1384
113 4 0.734841 12.2694 3.00467
142 6 4.77352 9.57342 1.04863
100 4 5.18826 12.0186 1.14427
107 4 7.07961 9.18602 2.23562
129 5 7.92792 11.7901 2.99318
167 7 12.7387 0.19715 1.01075
115 4 11.3819 11.2294 1.42578
121 5 9.39258 10.0828 1.21421
117 4 2.67269 4.22568 5.76145
130 5 2.00909 1.33491 5.27029
131 5 5.02478 2.44586 5.82523
134 5 7.7537 1.98933 5.80097
171 7 8.54086 1.17252 3.21935
177 7 0.122269 3.07299 6.01852
175 7 12.5112 0.0933024 5.88569
178 7 10.6997 1.95307 4.97665
172 7 9.23331 3.87847 3.84836
139 6 9.73526 12.6346 5.3798
136 5 3.05096 6.60827 6.67189
152 6 0.367408 6.10682 5.81513
153 6 0.679336 9.02284 6.43389
168 7 2.39363 6.98016 4.27084
112 4 4.8651 5.1499 4.79432
133 5 5.46763 7.3195 6.23517
156 6 7.49783 4.96338 6.02444
132 5 11.9319 4.49379 3.66437
169 7 9.94795 6.29442 3.43913
137 5 10.7454 5.05813 6.13111
150 6 11.4908 7.85897 5.14547
173 7 8.65118 7.39645 5.86984
161 7 0.844524 9.38149 3.79534
99 4 0.498543 11.5472 7.1695
111 4 1.67957 11.4893 5.20247
164 7 3.48573 9.38402 5.2506
176 7 4.18814 12.4585 5.57617
114 4 5.51984 10.9463 3.61295
155 6 7.00003 12.6086 5.54522
162 7 5.55695 10.5902 6.78887
170 7 6.84969 9.30428 4.95878
118 4 10.4754 8.86821 7.07702
116 4 11.179 12.8673 3.10135
154 6 9.45908 9.42916 3.92828
157 6 11.7645 10.5913 5.31983
174 7 8.77351 10.5767 6.60739
32 2 2.62472 13.0759 7.62969
61 3 1.65686 3.72471 10.4398
68 3 2.88448 0.654155 8.86929
79 3 0.402622 0.762542 9.90145
140 6 0.312956 1.05651 7.86765
69 3 3.53357 3.22775 7.87419
26 1 5.07093 0.778639 11.0079
8 1 2.23672 13.1041 10.3375
23 1 6.73104 2.37661 8.9486
39 2 4.63022 2.68215 8.44433
76 3 5.21694 1.80549 9.54366
119 5 5.54968 0.204599 7.72374
30 2 11.565 2.32256 7.1277
48 3 8.97 2.09567 8.9017
67 3 11.6461 2.38325 8.7057
160 7 9.26038 3.25051 7.02595
18 1 12.2623 3.98249 8.11513
9 1 10.3795 0.841149 7.60406
1 1 8.91722 0.544181 10.0421
89 3 10.4691 12.9721 9.32357
10 1 1.73796 4.18807 8.61207
12 1 1.89304 7.75603 9.81973
44 3 2.57717 5.66519 8.66323
54 3 1.69361 8.00098 8.06368
20 1 3.71868 5.04382 10.0153
56 3 3.83873 8.50005 7.61216
62 3 3.75995 7.22739 10.1537
74 3 5.65628 8.10044 8.87548
42 2 6.11445 5.51678 8.77262
45 3 8.3626 8.22242 9.44261
57 3 4.91002 5.97813 7.8815
82 3 6.0662 6.04973 10.4118
94 3 7.56308 5.78074 8.51617
43 3 5.43804 4.03145 8.66463
34 2 5.22649 7.33806 10.2006
38 2 0.439691 4.70985 10.6743
27 1 9.26105 6.18892 8.30037
77 3 12.6575 8.11924 9.59606
92 3 0.196165 5.5625 8.97986
135 5 12.3328 7.1219 7.87956
80 3 10.4194 5.1756 9.38891
19 1 12.8654 12.4795 10.8509
96 3 1.14178 10.3998 9.02669
138 5 2.98542 10.5148 7.58202
60 3 3.44136 9.84888 9.6908
78 3 7.35813 12.7411 9.11088
158 6 7.28074 8.86596 7.79791
7 1 5.02835 10.2694 10.109
31 2 7.49749 11.5846 8.0118
81 3 5.19869 12.0419 10.82
98 3 7.08533 10.453 10.135
6 1 7.25512 11.7457 10.9686
14 1 12.3699 9.7487 8.50743
15 1 8.84966 10.0866 10.2236
88 3 11.6755 10.8471 9.9385
146 6 11.034 11.5708 7.82319
36 2 2.52296 0.843447 13.2229
59 3 1.08473 0.704422 12.47
71 3 2.77507 2.284 13.5654
86 3 2.94207 12.8185 13.8424
93 3 3.27952 0.765979 11.6155
4 1 3.97724 3.50994 12.9703
41 2 6.91036 2.69585 11.6948
55 3 7.56745 3.14376 13.0732
63 3 5.31983 2.68698 11.9826
73 3 7.452 3.69814 10.6766
95 3 7.35259 1.36967 11.1987
22 1 10.8037 2.76448 10.356
24 1 9.42419 2.3193 12.7651
21 1 0.468976 2.06559 11.4445
40 2 10.0773 13.0573 11.963
47 3 10.3276 1.26897 11.4164
53 3 9.29616 0.244958 13.4383
58 3 12.609 3.64021 10.8317
65 3 10.0948 3.94782 11.6825
75 3 0.913245 5.96421 11.4617
17 1 12.453 6.97884 12.2152
51 3 3.97289 4.77695 11.7367
52 3 0.431958 7.82339 13.2514
83 3 4.00148 6.90157 12.9934
37 2 4.79551 5.86627 12.6071
11 1 7.73556 5.06306 11.772
46 3 6.23973 5.5644 13.045
90 3 8.94961 6.27286 11.2236
28 1 8.25132 7.8108 11.5899
5 1 11.3526 9.10393 10.36
33 2 10.2839 5.31349 10.8863
72 3 11.561 6.01059 11.2454
2 1 1.9609 11.4787 13.4913
29 2 1.93979 10.1497 10.2708
35 2 0.191472 9.17295 12.8934
50 3 3.29452 10.2113 12.7669
87 3 1.72836 11.4217 11.0979
91 3 1.75823 8.88825 11.113
64 3 0.499158 10.3825 13.671
85 3 5.56123 8.26584 11.3395
13 1 4.46251 11.5328 12.541
16 1 7.47516 13.0987 13.8739
3 1 3.8084 8.58529 12.2183
97 3 6.38534 11.9661 13.1165
70 3 12.1556 9.25787 11.9622
25 1 10.5663 10.5932 12.1943
49 3 9.51624 9.28245 11.6214
66 3 11.3182 12.2379 12.3573
84 3 8.97756 12.0693 11.0372
ITEM: TIMESTEP
4000
ITEM: NUMBER OF ATOMS
178
ITEM: BOX BOUNDS pp pp pp
0.0000000000000000e+00 1.3168533823700001e+01
0.0000000000000000e+00 1.3168533823700001e+01
0.0000000000000000e+00 3.5381309593600001e+01
ITEM: ATOMS id type x y z
143 6 4.17815 1.07898 0.562003
149 6 1.72211 1.89763 1.23043
163 7 3.74717 2.70531 3.18918
101 4 3.13515 3.77378 0.847142
144 6 0.0430011 4.01025 1.26824
108 4 3.01266 0.0604981 3.04198
104 4 8.48825 2.62567 1.1505
147 6 5.94806 0.747132 3.31409
159 7 5.7369 3.01906 1.2195
166 7 6.94036 0.614804 0.760765
109 4 6.68442 3.64398 3.47707
171 7 8.70617 1.1951 3.2254
127 5 10.9911 2.41399 2.03173
167 7 12.7776 0.378476 1.07829
105 4 2.03523 5.80831 1.55271
120 5 2.70637 8.05464 1.57241
122 5 4.66279 5.51822 2.07355
102 4 5.89988 7.31354 1.0513
123 5 7.57128 5.14159 1.6858
165 7 4.65912 8.21345 3.33618
124 5 12.8778 6.55365 2.55687
145 6 9.01118 7.52736 1.3484
103 4 10.5059 4.91362 1.59252
169 7 9.87016 6.31642 3.51804
106 4 2.50445 12.1079 0.817897
128 5 2.75708 10.4709 3.0713
141 6 0.599842 10.3872 1.12527
113 4 0.482062 12.3292 3.33799
142 6 4.68976 9.7166 0.96544
100 4 5.25136 12.0905 1.444
107 4 7.02509 9.13119 2.2001
129 5 7.95128 11.7391 2.87527
148 6 9.55545 13.1225 0.69414
125 5 11.4201 8.94539 2.34416
115 4 11.4767 11.4351 0.967435
121 5 9.3584 10.0797 1.29409
116 4 11.1946 12.9553 3.05981
126 5 1.73794 4.28639 3.57643
151 6 0.242336 1.89498 3.60474
117 4 2.93452 4.34503 5.71491
130 5 1.95122 1.13048 5.70006
131 5 5.03805 2.63094 5.4048
134 5 7.67128 1.94092 5.5571
177 7 13.1618 3.29823 6.09749
175 7 12.3351 0.281361 5.59928
178 7 10.7271 2.14919 5.22876
172 7 9.21857 3.80397 4.04944
136 5 2.81928 6.76962 6.5787
152 6 0.51552 5.88529 5.60836
153 6 0.81001 8.72451 6.44653
168 7 2.45876 7.1088 4.11768
110 4 7.02498 6.86497 3.73764
112 4 4.7284 5.47555 4.47004
133 5 5.57593 7.3008 6.09545
156 6 7.38976 4.93482 5.6723
173 7 8.75149 7.33608 5.82117
132 5 12.0688 4.39036 4.00379
137 5 10.6516 5.27713 6.16229
150 6 11.5598 7.77747 5.18355
161 7 0.49244 9.15278 3.73303
111 4 1.53777 11.6135 5.48279
164 7 3.6732 9.37705 5.43256
176 7 4.03307 12.3183 5.64804
114 4 5.32515 11.0608 3.63995
155 6 7.17424 12.2291 5.48059
162 7 5.67527 10.565 6.88955
170 7 6.67372 9.284 4.98567
174 7 8.66645 10.4133 6.521
139 6 9.77366 12.3256 5.22853
118 4 10.496 8.92404 6.98995
154 6 9.45436 9.3485 4.17616
157 6 11.9767 10.6081 5.22284
61 3 1.82639 3.58146 10.0263
68 3 3.00199 0.142299 9.17949
79 3 0.590317 0.961738 10.0021
140 6 0.382876 1.10194 7.9346
69 3 3.22174 3.2179 7.71955
23 1 7.31541 3.48648 9.16647
39 2 4.49359 2.90201 8.25539
76 3 4.91771 1.69032 9.02126
119 5 5.6661 0.0901093 7.40187
1 1 8.70473 0.50474 10.0197
43 3 5.00369 4.08585 9.22714
30 2 11.246 1.36584 7.40092
48 3 8.98809 2.29463 8.80645
67 3 11.849 1.93453 8.95868
160 7 9.27278 3.55377 7.10717
18 1 11.8908 3.83341 8.07616
9 1 8.80563 0.585186 7.5098
22 1 10.6045 2.35088 10.161
10 1 1.40686 4.76527 8.10204
12 1 1.8321 7.39958 9.82451
44 3 2.6806 5.80948 8.65544
54 3 1.8573 8.38426 8.338
20 1 3.80034 5.44905 9.99358
56 3 3.99995 8.39852 7.8008
62 3 3.74772 7.61782 10.3308
38 2 0.652718 4.4475 10.5946
74 3 5.92591 8.40954 9.09066
42 2 5.7679 5.39799 8.61081
57 3 4.68561 6.11417 7.80534
82 3 5.67894 6.08445 10.1706
94 3 7.23382 5.18928 8.68343
34 2 5.29276 7.59875 10.4123
158 6 7.61011 8.53806 7.7876
45 3 8.9897 7.72891 9.30221
27 1 8.88303 6.02157 8.38262
77 3 12.5641 7.5997 9.6656
92 3 12.9876 4.84772 9.23271
135 5 12.1884 6.8215 7.73419
80 3 9.83468 4.77105 9.44997
5 1 10.2961 7.58895 10.5088
99 4 0.526825 11.6965 7.34509
32 2 2.76807 12.8126 7.74368
96 3 0.653256 10.3885 9.55922
138 5 2.93131 10.4389 7.79276
60 3 3.38032 10.233 9.75383
29 2 2.02998 10.1585 10.5584
78 3 7.64369 12.3938 9.30495
7 1 5.28122 10.2312 9.75893
31 2 7.51315 11.4136 8.20373
98 3 7.32348 10.2245 9.96624
89 3 10.1738 13.1477 8.73459
19 1 12.6411 11.5745 10.4389
14 1 12.6845 9.3549 8.60701
15 1 9.19049 10.4512 9.73722
88 3 11.2785 10.6504 9.48624
146 6 11.0648 11.642 7.55628
8 1 1.80435 0.128539 10.7304
36 2 2.52939 0.973771 13.0094
59 3 1.22873 0.96946 12.5389
71 3 3.13677 2.38326 13.3988
93 3 3.49069 0.491808 11.6664
4 1 3.86453 3.52506 12.4565
21 1 0.964651 2.34071 11.1525
26 1 4.80043 0.632868 10.6512
41 2 6.65393 2.54244 11.7584
55 3 7.62246 2.82727 13.1516
63 3 5.16879 2.37611 11.737
73 3 7.18212 3.7613 10.7936
95 3 7.10445 1.10268 11.0309
24 1 9.07624 2.04647 12.8322
47 3 10.035 1.03942 11.223
58 3 13.0025 3.56419 11.2539
65 3 10.0635 3.63785 11.6566
75 3 1.16577 5.57077 11.353
17 1 0.048629 6.66693 12.095
51 3 3.73542 5.34835 12.5476
52 3 0.407672 7.88411 13.3498
83 3 4.10628 7.40551 13.8211
3 1 2.80275 8.50604 13.3612
37 2 4.75101 6.20039 13.1996
11 1 7.24733 4.8564 12.2237
46 3 6.18414 5.96863 13.2536
90 3 8.53268 6.07636 11.2739
28 1 8.12201 8.16939 11.0783
85 3 6.1112 7.98269 11.6662
33 2 9.8135 5.13424 10.9562
72 3 10.8579 6.28981 11.3405
86 3 2.91265 12.8278 13.8436
2 1 2.23439 11.1981 13.3093
35 2 0.32639 9.23506 12.7602
50 3 3.71639 10.1941 13.2643
87 3 1.70342 11.4546 11.3155
91 3 1.69192 9.0141 11.6586
64 3 0.611865 10.3139 13.7603
81 3 5.18192 11.7669 10.847
6 1 6.97219 12.203 11.0615
13 1 4.42538 11.7571 12.4454
16 1 8.11247 11.6993 13.4724
97 3 6.7184 12.3053 13.0223
40 2 10.194 12.7979 12.132
53 3 9.52931 13.1386 13.4785
70 3 12.3576 9.34106 11.7414
25 1 10.8422 10.3234 11.3588
49 3 9.52727 9.12962 11.2819
66 3 11.5783 12.1652 11.9365
84 3 9.21091 11.7999 11.362
ITEM: TIMESTEP
4100
ITEM: NUMBER OF ATOMS
178
ITEM: BOX BOUNDS pp pp pp
0.0000000000000000e+00 1.3168533823700001e+01
0.0000000000000000e+00 1.3168533823700001e+01
0.0000000000000000e+00 3.5381309593600001e+01
ITEM: ATOMS id type x y z
143 6 4.25796 1.13402 0.591439
149 6 1.75955 1.7635 1.09044
163 7 3.73331 2.67039 3.09578
101 4 2.89343 3.786 0.724602
144 6 13.1256 3.95633 1.1009
108 4 2.85862 0.155473 3.41595
104 4 8.32156 2.84646 1.3564
147 6 5.79169 0.91971 3.33232
159 7 5.63238 3.11589 1.08206
166 7 7.13338 0.59468 0.796727
109 4 6.46052 3.59677 3.61593
171 7 8.71738 1.14121 3.3678
127 5 11.0375 2.40625 2.20435
167 7 13.0472 0.48059 1.25761
105 4 1.85321 5.80684 1.28181
120 5 2.45601 8.05836 1.45125
122 5 4.44037 5.58109 2.01451
102 4 6.30937 7.25634 0.923555
123 5 7.84612 5.28525 1.72536
165 7 4.80919 8.30119 3.21873
124 5 12.8226 6.79423 2.33647
145 6 8.9894 7.67951 1.43736
103 4 10.4077 4.90568 1.34671
169 7 9.58288 6.57883 3.77611
106 4 2.51499 12.2694 0.986143
128 5 2.8705 10.4704 3.04294
141 6 0.538824 10.5383 1.20351
113 4 0.24271 11.9386 3.23524
142 6 4.62633 9.66786 0.785054
100 4 5.1334 12.0828 1.61982
107 4 7.1302 9.5558 1.81701
129 5 7.98422 11.9184 2.52322
148 6 9.73069 0.161256 0.588686
125 5 11.5525 9.03791 2.20107
115 4 11.661 11.5243 0.41578
121 5 9.78969 10.4368 1.1145
116 4 11.1109 13.002 2.88987
126 5 1.66532 4.40111 3.51447
151 6 0.177407 1.74801 3.56717
117 4 2.92463 4.34472 5.91901
130 5 2.02769 0.938656 5.7009
131 5 4.75268 2.18663 5.68916
134 5 7.6279 2.08364 5.66523
177 7 0.0156943 2.88234 6.08793
175 7 12.3833 0.0931314 5.7429
178 7 10.5494 2.14914 5.12815
172 7 9.09343 3.97518 3.82942
136 5 2.79847 6.80805 6.94407
152 6 0.593611 5.92072 5.60945
153 6 0.855987 8.7184 6.37345
168 7 2.55629 7.14776 4.11483
110 4 6.8896 6.85563 3.54376
112 4 4.68354 5.41904 4.57073
133 5 5.41321 7.39596 6.2712
156 6 7.46446 5.03039 5.71348
173 7 8.66274 7.37931 6.15603
132 5 11.9891 4.69032 3.62963
137 5 10.595 5.17803 6.03832
150 6 11.8412 7.73143 4.82876
161 7 0.819331 8.9668 3.57698
111 4 1.59807 11.2475 5.35348
164 7 3.47813 9.34755 5.5139
176 7 4.08511 12.2727 5.77569
114 4 5.26976 10.9763 3.74095
155 6 7.04022 12.1608 5.16126
162 7 5.60626 10.398 7.00345
170 7 6.88044 9.18651 5.07494
174 7 8.88177 10.4112 6.68783
139 6 9.87101 12.4035 5.05963
118 4 10.6437 8.75658 7.06606
154 6 9.25001 9.47151 3.89724
157 6 11.9208 10.4775 5.28891
61 3 2.10834 3.68681 10.5431
68 3 3.11485 0.266733 9.156
79 3 0.412566 0.784874 10.1049
140 6 0.294528 0.850697 7.88965
69 3 3.16411 3.54364 7.92566
23 1 6.84788 2.59805 9.44948
39 2 4.47467 3.17678 8.58948
76 3 5.04067 1.7611 8.99622
119 5 5.78306 0.441145 7.13835
1 1 8.93203 0.854737 9.76146
43 3 4.93283 4.06791 9.76632
30 2 11.2147 1.67835 7.4385
48 3 8.68352 2.39567 9.00818
67 3 10.8988 2.44024 8.93364
160 7 9.1878 3.27096 7.07812
18 1 11.7386 3.94026 8.37939
9 1 8.99935 0.667843 7.52489
22 1 9.80069 2.77653 10.3108
10 1 1.68269 4.4351 8.2318
12 1 1.17086 7.93794 10.0182
44 3 2.26625 5.98507 8.9864
54 3 2.0377 8.49855 8.22789
20 1 3.14397 5.84249 10.8589
56 3 3.83647 8.53991 7.88795
62 3 3.84291 7.49325 10.7661
38 2 0.834344 4.63449 10.6459
74 3 5.63587 8.31081 9.08031
42 2 5.57366 5.36976 9.27051
57 3 4.74262 6.24433 8.48876
82 3 5.82761 6.03209 10.7973
94 3 6.84756 4.83545 8.91437
34 2 5.43756 7.55542 10.3527
158 6 7.61112 8.73244 7.98425
45 3 7.57006 7.50715 9.63188
27 1 8.62447 5.92241 9.13056
77 3 12.3949 7.98162 9.61522
92 3 13.0527 4.78966 9.39917
135 5 12.2989 6.60692 7.66006
80 3 9.97454 4.61665 10.0641
5 1 11.1414 7.63751 10.7674
99 4 0.647906 11.5236 7.37703
32 2 2.92251 13.0765 7.75448
96 3 0.788719 10.6845 9.55618
138 5 3.13517 10.4404 7.85771
60 3 3.18976 10.0311 9.99669
29 2 1.98308 10.3562 10.6859
78 3 7.77202 12.6967 8.92638
7 1 5.29931 10.1969 10.1221
31 2 7.35403 11.7275 8.05835
98 3 7.33878 10.4304 9.80251
89 3 10.1561 0.0941967 8.55143
19 1 12.9933 12.222 10.2638
14 1 12.5337 9.67386 9.39275
15 1 9.18309 10.6385 9.64571
88 3 10.9418 10.4869 9.55039
146 6 11.1843 11.6211 7.58845
8 1 2.10165 13.1312 10.9913
36 2 2.7864 0.906518 13.5657
59 3 1.57824 0.500541 12.6713
71 3 2.97759 2.37906 13.7813
93 3 4.07129 0.405367 12.2123
4 1 3.84854 3.19918 12.2754
21 1 0.257199 1.89525 11.8048
26 1 4.75452 0.707599 10.5065
41 2 6.58617 1.89295 11.7865
55 3 7.23589 1.60445 13.0937
63 3 5.2321 2.54502 11.483
73 3 7.46208 3.04524 11.113
95 3 6.87293 0.630012 10.8957
24 1 9.06694 1.91923 13.1406
47 3 10.1744 1.30982 11.3264
58 3 13.0755 3.83144 11.9102
65 3 9.97129 3.69504 12.426
75 3 1.35201 5.98345 11.3543
17 1 13.0574 5.56889 12.5775
51 3 3.53873 5.16503 12.6519
52 3 0.11807 7.60649 13.0868
83 3 3.83699 7.30065 14.1098
3 1 4.16815 8.74051 12.502
37 2 4.50896 6.03207 13.3702
11 1 6.62824 4.90071 11.8669
46 3 5.82384 5.54283 13.79
90 3 8.39249 5.84575 12.006
28 1 8.02619 7.89427 11.7242
85 3 5.71007 8.66662 11.4091
33 2 9.7417 4.98859 11.5827
72 3 11.0386 6.10151 11.7405
86 3 3.14267 13.017 14.7252
2 1 2.33372 11.496 13.4711
35 2 0.400525 9.11268 12.6935
50 3 3.90974 10.7793 12.9764
87 3 1.44482 11.506 11.5613
91 3 1.69091 9.05216 11.7108
64 3 0.777494 9.88767 13.9056
81 3 5.11151 11.95 10.5839
6 1 6.99225 12.0212 11.0623
13 1 5.0124 12.1354 12.6582
16 1 8.46031 12.3693 13.3384
97 3 6.82602 11.6797 13.314
40 2 10.486 13.0579 11.9483
53 3 10.1592 13.07 13.5074
70 3 12.2983 9.38313 11.8619
25 1 10.8574 10.2011 11.5198
49 3 9.72542 8.6179 11.4358
66 3 11.7731 12.4231 11.4765
84 3 9.30315 12.0827 11.5342
ITEM: TIMESTEP
4200
ITEM: NUMBER OF ATOMS
178
ITEM: BOX BOUNDS pp pp pp
0.0000000000000000e+00 1.3168533823700001e+01
0.0000000000000000e+00 1.3168533823700001e+01
0.0000000000000000e+00 3.5381309593600001e+01
ITEM: ATOMS id type x y z
143 6 4.38337 1.06362 0.703497
149 6 1.77967 1.97035 1.15026
163 7 3.8066 2.95244 2.9366
101 4 2.91416 4.13988 0.685517
144 6 12.91 3.75583 1.08611
108 4 3.18589 0.197551 3.34724
104 4 8.26966 3.00544 1.31341
147 6 5.77592 0.877065 3.27985
159 7 5.65042 3.22943 1.10363
166 7 7.17537 0.717017 0.87905
109 4 6.3704 3.75851 3.47789
171 7 8.47343 1.36339 3.30265
127 5 10.7161 2.37814 2.13205
167 7 13.0183 0.34952 1.04755
105 4 1.51876 5.95079 0.830129
120 5 2.57066 7.96974 1.81978
122 5 4.33919 5.61606 2.196
102 4 6.48986 7.55034 0.945078
123 5 7.60128 5.35529 1.41669
165 7 4.7739 7.98787 3.25576
124 5 13.1136 6.70863 2.55244
145 6 9.16442 7.9873 1.40339
103 4 10.469 5.02336 1.44135
169 7 9.52837 6.47434 3.62642
106 4 2.13886 12.3665 0.968692
128 5 3.11038 10.5928 2.74005
141 6 0.632501 10.4305 0.893075
113 4 0.559753 11.9954 3.27423
142 6 4.6781 9.55647 0.81607
100 4 5.29851 11.9128 1.35117
107 4 6.97008 9.47604 2.31574
129 5 8.01313 11.9369 2.59017
148 6 9.89073 0.578844 0.664483
125 5 11.7905 9.49587 2.5794
115 4 11.6187 11.8007 0.192937
121 5 9.76969 10.5704 1.33854
116 4 11.0877 12.5879 2.77546
126 5 1.53768 4.32132 3.13547
151 6 0.023425 1.63976 3.55027
117 4 2.59306 4.12381 5.60905
130 5 1.6844 0.768749 5.79821
131 5 4.22654 2.09951 5.43022
134 5 7.34365 2.04033 5.55346
177 7 0.00273859 2.89127 5.9674
175 7 12.3474 12.9748 5.70119
178 7 10.7484 1.91366 4.77383
172 7 9.08694 4.06665 3.95435
136 5 2.849 6.59247 6.84168
152 6 0.478887 5.77628 5.55746
153 6 0.793646 8.79147 6.41487
168 7 2.68589 6.73043 4.3647
110 4 7.04196 6.7048 3.73002
112 4 4.74613 5.19789 4.88842
133 5 5.42053 7.2792 6.32186
156 6 7.60784 5.24604 5.93644
173 7 8.62544 7.61304 6.34712
132 5 11.7712 4.57699 3.64937
137 5 10.711 4.99078 6.08014
150 6 11.4907 7.62631 4.88607
161 7 0.931624 9.12108 3.80035
111 4 1.85977 11.3422 5.1094
164 7 3.63512 9.22385 5.21973
176 7 4.08 12.1604 5.86636
114 4 5.46748 10.8978 3.69529
155 6 7.23843 12.1303 5.26435
162 7 5.69971 10.467 6.71061
170 7 6.87001 9.09585 5.11063
174 7 9.10014 10.3768 6.52468
139 6 9.79017 12.4631 5.17707
118 4 10.7039 8.59053 6.97121
154 6 9.32672 9.70173 3.94637
157 6 11.7539 10.3227 5.26907
61 3 2.03226 3.65027 10.7442
68 3 3.21155 0.523313 9.4816
79 3 0.158792 0.768343 10.2825
140 6 0.184681 0.593474 8.24441
69 3 3.04124 3.09625 8.15512
23 1 7.11087 3.15192 8.73699
39 2 4.43165 3.24445 8.8018
76 3 5.61625 2.198 9.13326
119 5 6.01245 0.32905 7.39018
1 1 8.58601 0.734557 10.1959
43 3 4.77964 4.43043 9.72618
30 2 11.3278 1.47509 7.02869
48 3 8.84213 2.22975 8.71104
67 3 11.5154 1.78585 8.78443
160 7 9.13051 3.12334 6.88936
18 1 11.9506 3.74289 8.2114
9 1 9.08544 0.347828 7.46903
22 1 9.83114 3.36869 10.0156
10 1 1.51242 4.22483 8.54057
12 1 1.5809 7.2243 9.92634
44 3 2.47862 5.8485 9.06656
54 3 1.76382 7.91307 7.96047
20 1 3.0689 5.42144 10.6569
56 3 3.74879 8.50791 7.77149
62 3 3.43079 7.57337 10.3935
38 2 0.654451 4.1773 11.0296
74 3 5.59015 8.39227 9.04687
42 2 5.91913 5.75202 9.56136
57 3 5.32614 6.17957 8.20478
82 3 5.60797 6.42264 10.8752
94 3 7.24852 4.84182 9.70633
34 2 5.00098 7.89105 10.3468
158 6 7.2162 9.13594 8.19072
45 3 8.45072 7.59789 9.62635
27 1 9.32758 6.05926 8.93908
77 3 12.3346 7.55187 9.80914
92 3 13.1079 3.9979 9.59088
135 5 12.3365 6.9795 7.63958
80 3 9.87296 5.06157 10.3867
5 1 11.5808 7.82369 11.3623
99 4 0.714568 11.5129 7.14208
32 2 2.95812 0.236284 7.94826
96 3 0.939157 10.452 9.38513
138 5 3.11018 10.5355 7.62829
60 3 3.37062 10.0458 9.94554
29 2 1.94107 10.285 10.5377
78 3 7.5575 12.7815 9.02154
7 1 5.2949 10.3318 10.1955
31 2 7.68828 11.5031 7.90152
98 3 7.72183 10.1456 10.0381
89 3 10.1285 12.9741 9.16037
19 1 13.0103 12.2076 10.8811
14 1 12.4239 9.50233 9.31466
15 1 9.57068 9.51803 9.46031
88 3 11.5541 10.7392 9.78796
146 6 11.31 11.5583 7.78904
8 1 1.88799 0.494717 10.931
36 2 2.40729 0.857577 13.3872
59 3 1.3041 1.39365 12.6272
71 3 3.33493 1.96298 14.131
93 3 3.41626 0.272715 12.1401
4 1 3.49811 3.06972 12.6168
21 1 12.7546 1.81081 11.7923
26 1 4.7613 0.444243 10.4843
41 2 6.58108 1.87323 12.2743
55 3 7.29231 1.11291 13.4851
63 3 5.37152 2.58008 12.6803
73 3 7.60304 3.25677 12.0127
95 3 6.79342 1.00659 11.0461
24 1 9.4203 2.41428 12.7722
47 3 9.91518 1.5314 11.0416
58 3 12.9824 3.70032 12.2593
65 3 10.1747 4.03771 12.5956
75 3 0.845464 5.7322 11.3983
17 1 13.0613 5.53704 12.863
51 3 3.39951 4.90914 12.3565
52 3 0.0238246 7.87209 13.513
83 3 4.10037 7.23714 12.9701
3 1 3.15057 8.69106 12.2049
37 2 4.44835 5.78513 13.0234
11 1 7.5381 4.90731 12.5549
46 3 5.75438 5.18145 13.425
90 3 8.84744 6.23722 12.6877
28 1 8.33625 7.9184 11.3607
85 3 5.34128 8.86514 11.4812
33 2 10.152 5.45653 12.1027
72 3 11.2502 6.31011 12.005
86 3 2.1365 12.7572 14.4197
2 1 2.29207 11.3244 13.0932
35 2 0.273652 9.3262 13.038
50 3 3.61183 10.314 12.8761
87 3 1.71852 11.5892 11.3258
91 3 1.49851 8.97524 11.3491
64 3 1.11617 10.197 13.5301
81 3 5.36564 11.9528 10.7108
6 1 7.34738 11.6923 10.7202
13 1 4.99011 11.2741 12.4389
16 1 8.25269 12.477 13.1935
97 3 6.97214 11.4559 12.4613
40 2 10.333 0.335077 11.9413
53 3 9.83585 0.598088 13.3668
70 3 12.304 9.76602 12.2111
25 1 10.6054 10.8118 11.7313
49 3 9.92035 9.08794 11.4648
66 3 11.5764 12.5954 12.0384
84 3 9.27338 12.3268 11.526
ITEM: TIMESTEP
4300
ITEM: NUMBER OF ATOMS
178
ITEM: BOX BOUNDS pp pp pp
0.0000000000000000e+00 1.3168533823700001e+01
0.0000000000000000e+00 1.3168533823700001e+01
0.0000000000000000e+00 3.5381309593600001e+01
ITEM: ATOMS id type x y z
143 6 4.21728 1.14715 0.628989
149 6 1.82484 2.18705 1.22833
163 7 3.90586 2.98558 2.91763
101 4 2.99491 4.2184 0.566377
144 6 12.8266 3.92529 0.970722
108 4 3.13346 0.0423945 3.21952
104 4 8.55756 3.14945 1.09819
147 6 5.92083 0.821429 3.34937
159 7 5.79213 3.20328 1.01783
166 7 7.0756 0.908941 0.748652
109 4 6.43216 3.68638 3.39271
171 7 8.65931 1.35915 3.20386
127 5 10.9152 2.32184 2.0176
167 7 12.7257 0.580545 0.842097
105 4 1.27133 5.76106 0.84015
120 5 2.48367 7.73124 1.97404
122 5 4.74038 5.57275 2.07845
102 4 6.29541 7.34114 0.994299
123 5 7.81668 5.5385 1.64349
165 7 4.87632 7.973 3.47295
124 5 12.9335 6.62203 2.90741
145 6 9.36318 7.93705 1.55634
103 4 10.4288 4.99567 1.47808
169 7 9.62095 6.46322 3.70326
106 4 2.34223 12.703 0.804117
128 5 2.87002 10.5335 2.42082
141 6 0.617264 10.5403 0.91048
113 4 0.46127 12.0461 3.01847
142 6 4.95481 9.26156 1.05388
100 4 5.48053 11.8676 1.39699
107 4 7.25005 9.45039 2.27903
129 5 7.99392 12.0579 2.64063
148 6 9.5616 0.238042 0.587706
125 5 11.7315 9.89813 2.5969
115 4 11.5488 11.4387 0.497977
121 5 9.391 10.4413 1.07642
116 4 11.0821 12.857 2.77341
126 5 1.4676 4.3361 3.18276
151 6 0.113742 1.53581 3.44509
117 4 2.38111 3.67472 5.6023
130 5 1.76375 0.822324 5.7451
131 5 4.57517 2.02925 5.4313
134 5 7.11066 2.19012 5.73926
177 7 13.0922 2.96858 5.79589
175 7 12.4942 0.0406869 5.61062
178 7 10.5995 1.945 4.91864
172 7 8.95149 3.92053 3.96204
136 5 2.73873 6.15128 6.75462
152 6 0.273868 5.81052 5.6327
153 6 0.722926 8.61901 6.45843
168 7 2.57311 6.53586 4.33327
110 4 7.03076 6.58468 3.94013
112 4 4.91295 5.005 5.04523
133 5 5.50533 7.27079 6.3191
156 6 7.581 5.08182 6.05465
173 7 8.78808 7.45256 6.05949
132 5 11.8966 4.27444 3.86823
137 5 10.532 5.35283 6.21048
150 6 11.5408 7.8221 5.0327
161 7 0.961973 9.026 3.86469
111 4 1.78875 11.3622 5.12384
164 7 3.57023 9.28955 5.14919
176 7 4.20155 12.6546 5.79157
114 4 5.20646 11.0989 3.5865
155 6 7.33956 12.1112 5.3716
162 7 5.64643 10.7538 6.85062
170 7 6.70262 9.1806 5.04473
174 7 8.93034 10.3871 6.79762
139 6 9.82934 12.4685 5.40446
118 4 10.8795 8.906 7.19387
154 6 9.47128 9.60799 4.22659
157 6 11.96 10.6174 5.43341
61 3 2.08402 3.46581 10.3214
68 3 2.73731 0.181377 9.38007
79 3 0.137837 0.247916 9.98503
140 6 13.0307 0.472654 7.98423
69 3 3.39441 2.90617 7.52667
23 1 7.29547 2.97185 9.50938
39 2 4.51193 2.81655 8.52328
76 3 5.49048 1.83062 9.2202
119 5 5.81493 0.179676 7.54096
1 1 8.59282 0.899676 10.4419
43 3 4.86587 4.02405 9.55956
30 2 11.3945 1.81997 6.88559
48 3 8.91074 2.48273 9.03258
67 3 11.2603 1.86537 8.54288
160 7 9.39395 3.10221 6.59285
18 1 12.0877 3.83079 7.8248
9 1 10.0211 0.800981 7.70986
22 1 10.7385 3.09618 9.74982
10 1 1.6684 3.26248 8.51063
12 1 1.92152 7.3098 10.2903
44 3 2.01904 5.28204 8.58216
54 3 1.74469 7.93485 8.12343
20 1 3.23917 5.36231 9.92742
56 3 3.69108 7.84827 7.77318
62 3 3.70402 7.19288 10.2417
38 2 0.828666 4.36052 10.81
74 3 5.5448 8.40225 8.76047
42 2 5.73327 5.35012 9.25399
57 3 4.78215 6.03259 8.23956
82 3 5.99033 6.53904 10.4783
94 3 7.12566 4.89006 9.1
34 2 5.10249 7.79706 10.2429
158 6 7.40426 9.15804 7.84827
45 3 8.17764 7.73564 9.6265
27 1 8.83935 5.82634 8.67081
77 3 12.8017 7.9496 9.53875
92 3 12.8569 3.83588 9.54794
135 5 12.2451 6.72898 7.92666
80 3 10.229 4.98243 10.3235
5 1 11.4544 8.50557 10.9947
99 4 0.787224 11.4001 7.11307
32 2 2.61242 13.0587 7.94234
96 3 0.885643 10.5088 9.28222
138 5 3.02835 9.86543 7.45334
60 3 3.4644 10.2499 9.72861
29 2 2.05001 10.4226 10.4308
78 3 7.44217 12.9112 9.21328
7 1 5.27775 10.5533 9.56945
31 2 7.68306 11.6687 7.96058
98 3 7.46631 9.9996 9.92532
89 3 10.2196 12.7923 9.37221
19 1 12.9495 11.8719 11.353
14 1 13.0678 9.46242 8.57869
15 1 9.18608 9.47649 9.68328
88 3 11.4803 10.7109 9.86258
146 6 11.0564 11.5312 7.78742
8 1 2.24079 0.012872 11.1442
36 2 2.21888 1.08246 13.3277
59 3 1.4454 1.56628 12.07
71 3 2.86293 1.91959 14.1842
93 3 3.70016 0.425199 12.3133
4 1 4.22854 2.80414 13.1028
21 1 12.783 1.18751 11.5015
26 1 5.00173 0.278366 10.9234
41 2 6.77603 2.18257 12.4891
55 3 6.46577 1.36898 13.7363
63 3 5.57518 2.60462 11.6339
73 3 7.87842 3.22514 12.6635
95 3 7.27584 1.06382 11.4846
24 1 9.71683 2.96678 13.1372
47 3 10.4811 1.73594 11.2982
58 3 0.155119 4.03521 12.1011
65 3 10.1491 4.52042 12.7445
75 3 1.22507 5.76414 10.947
17 1 0.0250273 5.98405 12.7652
51 3 3.66519 4.90376 12.9995
52 3 0.574682 7.87955 13.1587
83 3 3.70615 7.27914 13.5128
3 1 3.61746 8.66383 12.3421
37 2 4.4415 6.04825 13.5194
11 1 7.11323 5.15412 12.2542
46 3 5.96838 5.77318 13.4516
90 3 8.76038 6.33632 11.6951
28 1 8.2653 8.14827 11.5035
85 3 5.02196 8.9553 11.2179
33 2 10.2206 5.65218 11.7565
72 3 11.4051 6.72685 12.0836
86 3 1.68877 12.816 13.7106
2 1 2.19261 11.0554 13.9985
35 2 0.0862374 9.43887 13.368
50 3 3.48853 10.5629 12.9098
87 3 1.7294 11.5048 11.3234
91 3 1.95329 8.94433 11.163
64 3 0.668603 10.2517 14.4977
81 3 5.54529 11.8661 10.9648
6 1 7.23049 12.0935 11.1021
13 1 5.23458 10.6654 12.1881
16 1 7.36635 13.0362 13.1507
97 3 6.71617 11.2048 12.7964
40 2 10.3053 0.413514 12.1661
53 3 9.76058 0.747829 13.6109
70 3 12.5403 10.036 12.0926
25 1 10.0396 11.1536 10.9577
49 3 9.68865 9.33659 11.3652
66 3 11.5097 12.8371 12.1601
84 3 9.03474 12.5673 11.6447
ITEM: TIMESTEP
4400
ITEM: NUMBER OF ATOMS
178
ITEM: BOX BOUNDS pp pp pp
0.0000000000000000e+00 1.3168533823700001e+01
0.0000000000000000e+00 1.3168533823700001e+01
0.0000000000000000e+00 3.5381309593600001e+01
ITEM: ATOMS id type x y z
143 6 4.26685 1.18001 0.646523
149 6 1.60211 2.18355 0.949714
163 7 3.93951 2.65831 2.97517
101 4 3.12926 4.08794 0.841022
144 6 12.8504 3.96318 0.986658
108 4 3.15906 0.128479 3.10155
104 4 8.49959 2.88966 1.02823
147 6 5.75903 0.789404 3.27969
159 7 5.76377 3.27945 0.869398
166 7 7.04863 0.751942 0.866555
109 4 6.6493 3.56991 3.45132
171 7 8.5139 1.25487 3.18618
127 5 10.8654 2.22137 1.95283
167 7 12.7322 0.69422 0.881785
105 4 1.47554 5.71604 1.34638
120 5 2.6875 7.60227 1.76006
122 5 4.44863 5.5341 2.34957
102 4 6.57707 7.10759 1.18449
123 5 8.12089 5.22123 1.6055
165 7 4.80411 7.93962 3.61644
124 5 12.6406 6.78138 2.64677
145 6 9.53176 7.70811 1.83498
103 4 10.5792 5.1731 1.35526
169 7 9.90327 6.41084 3.88721
106 4 2.08438 12.7614 0.929602
128 5 2.89668 10.3742 2.50053
141 6 0.615395 10.7681 0.847601
113 4 0.27434 11.9922 3.10716
142 6 4.90851 9.36187 1.27899
100 4 5.08879 12.0124 1.43765
107 4 7.25571 9.11504 2.38076
129 5 7.83344 11.8325 2.87498
148 6 9.53659 13.0436 0.561071
125 5 11.6752 9.68288 2.71274
115 4 11.5131 11.5627 0.759852
121 5 9.40589 10.283 1.18458
116 4 10.9664 12.7219 2.93614
126 5 1.60469 4.19637 3.40364
151 6 0.167835 1.72529 3.28172
117 4 2.61044 3.84223 5.5414
130 5 1.99571 1.12277 5.68675
131 5 4.92055 2.3809 5.66256
134 5 7.84658 1.88966 5.53538
177 7 13.1394 2.90882 5.88404
175 7 12.4606 0.19663 5.47856
178 7 10.5853 1.84419 4.70772
172 7 9.09788 4.05372 3.87563
136 5 2.79888 6.01865 6.6847
152 6 0.278121 5.7713 5.72492
153 6 0.918891 8.54606 6.49447
168 7 2.53916 6.76873 4.20962
110 4 7.09392 6.65839 3.70563
112 4 4.74997 5.16103 4.73785
133 5 5.63647 7.29488 6.12289
156 6 7.40258 4.87536 5.9783
173 7 8.60816 7.56486 6.12468
132 5 11.8291 4.39389 3.81873
137 5 10.6153 5.38574 6.36267
150 6 11.7197 8.08974 5.0887
161 7 0.865219 9.00108 3.62829
111 4 1.91043 11.474 4.95479
164 7 3.34237 9.4358 5.04813
176 7 4.22447 12.5466 5.67558
114 4 5.1947 11.0204 3.73691
155 6 7.12359 12.3851 5.42973
162 7 5.39444 10.6824 6.88921
170 7 6.77829 9.40385 5.18408
174 7 8.94116 10.506 6.72308
139 6 9.96273 12.4961 5.33456
118 4 10.431 8.6416 7.19093
154 6 9.34184 9.73605 4.25086
157 6 12.1128 10.7151 5.51649
61 3 2.13835 3.58556 10.873
68 3 2.9788 0.0427341 9.02616
79 3 12.9938 13.165 9.8927
140 6 13.026 0.240102 7.88651
69 3 3.58911 3.62387 7.6007
23 1 7.53058 2.90372 8.40182
39 2 4.3625 2.95099 8.66864
76 3 5.07701 1.69946 9.29272
119 5 5.85363 0.436987 7.54241
1 1 8.92815 0.605731 10.7093
43 3 4.64788 4.16734 9.70433
30 2 11.0199 1.41022 6.8967
48 3 8.7881 1.97535 9.64879
67 3 11.5232 2.14059 8.48778
160 7 9.48132 3.40015 6.83813
18 1 12.0603 3.85622 8.12931
9 1 9.0497 0.373295 7.76076
22 1 10.4027 2.72877 9.88085
10 1 1.73691 3.75374 8.76816
12 1 1.81631 7.48564 10.3056
44 3 2.42032 5.44368 8.67783
54 3 2.01944 7.8621 8.1007
20 1 3.02905 5.31926 10.747
56 3 3.76321 7.79446 7.3931
62 3 3.65973 7.20016 9.97256
38 2 0.761214 4.38471 10.9471
74 3 5.38752 8.29249 8.7359
42 2 5.71293 5.21431 9.11863
57 3 4.99203 5.83391 7.82948
82 3 5.84684 6.17828 10.2763
94 3 7.0009 4.57278 8.79177
34 2 5.10942 7.47873 9.93592
158 6 7.29186 8.77449 7.783
45 3 8.07174 7.62059 9.39779
27 1 9.36462 6.26159 8.90033
77 3 12.8157 8.01173 9.46411
92 3 12.9723 3.96544 9.76423
135 5 12.163 6.90674 7.93285
80 3 10.1406 4.69424 9.95232
5 1 11.4747 8.66045 10.8065
99 4 0.827005 11.3877 6.99532
32 2 2.70941 12.9968 7.60723
96 3 1.0385 10.3097 9.4158
138 5 2.94772 10.0384 7.54751
60 3 3.38552 10.1274 9.6762
29 2 2.12788 10.1103 10.5749
78 3 7.91491 12.6134 9.11021
7 1 5.64601 10.1903 10.0135
31 2 7.35933 11.438 8.0012
98 3 7.44345 10.1121 9.92195
89 3 10.4228 13.1598 9.11039
19 1 13.0645 11.1646 10.6872
14 1 12.3005 9.79492 8.17806
15 1 9.03301 9.89856 9.73603
88 3 11.4944 10.6873 9.75184
146 6 10.9946 11.6419 7.80524
8 1 1.66728 13.1192 10.2745
36 2 2.3881 1.10281 13.1135
59 3 1.00368 0.923175 11.7604
71 3 2.45934 2.46429 13.7089
93 3 3.54303 0.644508 11.9478
4 1 3.71581 3.25119 12.451
21 1 12.4912 1.24953 11.3091
26 1 5.08429 0.557549 11.0877
41 2 6.41327 2.40091 12.4923
55 3 5.9575 1.82671 13.873
63 3 5.2589 2.72387 11.6145
73 3 7.75377 3.38544 12.5976
95 3 6.88668 1.06618 11.6345
24 1 9.7396 3.08864 13.1059
47 3 10.5991 1.80797 11.564
58 3 0.202444 4.30083 12.2175
65 3 10.6215 4.65378 12.5151
75 3 1.08909 5.83636 10.7341
17 1 12.8851 6.17679 12.0019
51 3 3.90116 4.98241 12.7646
52 3 0.302287 7.31163 13.0162
83 3 3.63353 7.21077 13.5211
3 1 3.7089 8.46386 12.3723
37 2 4.66541 6.19886 13.2835
11 1 7.50906 4.99668 11.9957
46 3 6.20321 6.30834 12.9925
90 3 8.72934 6.08054 11.5498
28 1 8.16415 8.23119 11.4783
85 3 5.37078 8.57539 11.1803
33 2 10.2203 5.52412 11.3347
72 3 11.1754 6.76433 11.2132
86 3 2.13157 12.9962 13.9775
2 1 2.28772 11.3129 13.2696
35 2 0.260756 8.7571 13.0217
50 3 3.92191 10.4408 13.5479
87 3 1.92259 11.4983 11.3646
91 3 2.01329 8.78972 11.3944
64 3 1.16949 9.7117 13.9062
81 3 5.32113 11.8922 11.063
6 1 7.09693 12.2151 11.1045
13 1 5.16668 11.0854 12.509
16 1 7.24199 0.3746 13.4377
97 3 6.88491 11.8345 12.8433
40 2 10.3941 0.453988 12.5112
53 3 9.70005 1.12045 13.6734
70 3 12.5862 9.50667 11.9406
25 1 10.873 11.532 11.6699
49 3 9.76382 9.19396 11.3542
66 3 11.8174 13.0269 12.5703
84 3 9.34611 12.5066 11.8283
ITEM: TIMESTEP
4500
ITEM: NUMBER OF ATOMS
178
ITEM: BOX BOUNDS pp pp pp
0.0000000000000000e+00 1.3168533823700001e+01
0.0000000000000000e+00 1.3168533823700001e+01
0.0000000000000000e+00 3.5381309593600001e+01
ITEM: ATOMS id type x y z
143 6 4.26252 1.1798 0.571367
149 6 1.71483 2.17663 0.61593
163 7 3.83606 2.76819 3.1175
101 4 3.10347 3.96696 0.71644
144 6 12.8918 3.8829 1.19273
108 4 2.87426 0.191699 3.23486
104 4 8.28266 2.82272 1.11214
147 6 5.73438 0.750864 3.47139
159 7 5.70663 3.16131 1.15256
166 7 6.86938 0.39371 0.907912
109 4 6.64909 3.55581 3.34194
171 7 8.51191 1.0234 3.06889
127 5 10.6937 2.29456 1.87329
167 7 12.719 0.442674 0.932347
105 4 1.8407 5.80258 1.54919
120 5 2.84494 8.03028 1.79912
122 5 4.51385 5.51079 2.14884
102 4 6.21537 7.15604 1.12323
123 5 7.88012 5.2651 1.52967
165 7 4.80519 7.98684 3.41777
124 5 12.9715 6.73657 2.66528
145 6 9.49618 7.6355 1.78401
103 4 10.6168 4.972 1.64035
169 7 10.0065 6.31617 3.98186
106 4 2.03703 12.722 0.859617
128 5 2.8015 10.6576 2.52459
141 6 0.544065 10.6489 0.780722
113 4 0.220501 12.0826 3.06358
142 6 5.14578 9.45469 1.14588
100 4 4.89624 12.0445 1.28114
107 4 7.27629 9.03554 2.49327
129 5 7.64785 11.7158 2.74251
148 6 9.50477 0.134808 0.667478
125 5 11.6931 9.57557 2.54376
115 4 11.4395 11.525 0.219476
121 5 9.56016 10.269 1.41093
116 4 10.9978 12.5945 2.81561
126 5 1.74309 4.15873 3.47007
151 6 0.117254 1.64631 3.37329
117 4 2.75025 4.05073 5.75603
130 5 1.90899 1.06119 5.69876
131 5 5.51207 2.53146 5.64777
134 5 7.96732 1.94136 5.75203
177 7 13.1665 2.97876 5.97432
175 7 12.4726 0.0597952 5.40611
178 7 10.8065 2.08448 4.64162
172 7 9.22243 3.87654 3.8369
136 5 2.72075 6.63478 6.68255
152 6 0.403633 5.82774 5.56955
153 6 1.14061 8.68896 6.16947
168 7 2.28819 6.89502 4.21079
110 4 7.12868 6.54313 3.67683
112 4 4.7438 5.14714 4.97434
133 5 5.44605 7.2671 6.21695
156 6 7.50135 4.7465 5.79382
173 7 8.36334 7.40699 5.9482
132 5 12.0947 4.3913 3.72893
137 5 10.6392 5.5773 6.41537
150 6 11.6293 8.00378 5.17572
161 7 0.872913 9.24101 3.75212
111 4 1.69868 11.5544 4.98449
164 7 3.55198 9.4331 5.21892
176 7 4.02966 12.3996 5.77884
114 4 5.18361 10.9218 3.64712
155 6 7.03647 12.3729 5.63395
162 7 5.64231 10.4912 6.91783
170 7 6.774 9.45439 5.08622
174 7 8.63316 10.5935 6.81507
139 6 9.71724 12.59 5.33821
118 4 10.3186 8.90081 7.26451
154 6 9.54093 9.60967 4.21883
157 6 11.9029 10.5745 5.45447
61 3 2.28078 3.83119 10.8247
68 3 2.83043 0.483864 9.16204
79 3 0.12853 0.0163357 9.88635
140 6 0.0222019 0.201463 7.90065
69 3 3.3669 3.17461 7.67138
23 1 7.22989 3.16151 8.53125
39 2 4.65125 2.93591 8.2616
76 3 5.45451 1.90966 9.07945
119 5 5.5154 0.530504 7.37095
1 1 8.39572 0.712218 10.3615
43 3 4.5823 4.27193 9.33631
30 2 11.0612 0.99527 6.90966
48 3 8.42964 2.02493 9.45046
67 3 11.5957 1.81131 9.04952
160 7 9.6731 3.48038 6.77786
18 1 11.8887 4.02302 8.84572
9 1 8.57871 0.38304 8.01559
22 1 10.167 2.37858 9.86786
10 1 1.94101 3.66065 8.84134
12 1 1.42739 7.17219 10.2117
44 3 2.25671 5.60526 8.72148
54 3 2.2936 8.22055 8.02189
20 1 3.39725 5.4476 10.3095
56 3 4.32209 8.50059 7.26317
62 3 3.42946 7.28068 10.4169
38 2 0.798617 3.98476 11.1192
74 3 5.38518 8.45978 9.1356
42 2 5.61496 5.48186 9.0969
57 3 4.8386 6.09883 7.8918
82 3 5.6894 6.37458 10.3488
94 3 7.16255 4.91535 9.35625
34 2 4.92702 7.70077 10.4078
158 6 7.25313 8.93102 8.1006
45 3 7.80748 7.47499 9.48863
27 1 8.76005 5.66854 9.00371
77 3 12.8715 7.78842 9.52471
92 3 0.312323 3.59767 9.65709
135 5 12.4627 7.20258 7.68261
80 3 9.78721 4.52789 9.75508
5 1 11.2255 8.16767 10.94
99 4 1.00906 11.3875 6.96134
32 2 2.77733 12.9923 7.8093
96 3 1.13569 10.2384 9.14249
138 5 3.12598 10.3642 7.74925
60 3 3.48591 9.78345 9.82532
29 2 2.06719 9.87935 10.2486
78 3 7.5027 12.6767 9.31408
7 1 5.17853 10.3555 10.3042
31 2 7.30193 11.8256 8.05684
98 3 7.18381 10.2956 10.3588
89 3 9.93698 12.8756 9.19281
19 1 12.8908 11.2097 10.121
14 1 12.556 9.67678 7.90717
15 1 9.06071 10.4597 10.0099
88 3 11.198 10.7153 9.63448
146 6 11.1226 11.7059 7.77271
8 1 1.8463 13.1332 10.6716
36 2 2.29393 1.12171 13.088
59 3 0.966308 0.622753 12.3101
71 3 2.61186 2.58737 13.5573
93 3 3.32176 1.00145 11.7281
4 1 3.68591 3.25185 12.2584
21 1 12.6105 0.517092 11.483
26 1 4.79838 0.673004 10.5911
41 2 6.72198 2.10548 12.1597
55 3 6.87824 1.60562 13.6148
63 3 5.39129 2.6996 11.7446
73 3 7.56741 3.442 11.6375
95 3 6.96402 0.8014 11.3424
24 1 9.43565 2.93503 12.4881
47 3 10.5562 1.42739 11.386
58 3 0.0815643 3.58295 12.337
65 3 10.4253 4.32967 12.3129
75 3 0.700354 5.7247 11.0628
17 1 0.202491 5.87965 12.7045
51 3 3.9236 5.18456 12.0499
52 3 12.9179 7.65533 12.8958
83 3 3.96166 7.27225 13.4858
3 1 3.94627 9.16719 12.7625
37 2 4.73384 6.18253 12.8296
11 1 7.25958 5.06962 11.6145
46 3 6.29716 5.94722 13.1325
90 3 8.64569 6.07531 11.7223
28 1 8.03582 7.90073 11.4893
85 3 5.26091 8.53286 11.537
33 2 9.82034 5.24937 11.2958
72 3 10.8783 6.36522 11.0465
86 3 2.76269 13.1226 13.742
2 1 2.41166 11.3078 13.3501
35 2 0.567349 8.97952 12.5012
50 3 4.13816 11.0114 12.9276
87 3 2.07195 11.08 11.3518
91 3 1.55826 8.6462 11.269
64 3 1.28704 9.78264 13.6454
81 3 5.05777 11.954 10.6907
6 1 6.44001 11.2951 11.816
13 1 4.60093 12.7896 13.4291
16 1 7.84819 0.0121986 13.4104
97 3 6.664 11.6834 13.5202
40 2 10.269 0.288785 12.573
53 3 9.55923 1.24899 13.5371
70 3 12.7079 9.74226 11.496
25 1 11.0698 10.4894 12.3539
49 3 9.78316 9.43792 11.3911
66 3 11.4685 12.5114 12.8564
84 3 9.16238 12.3985 12.0393
ITEM: TIMESTEP
4600
ITEM: NUMBER OF ATOMS
178
ITEM: BOX BOUNDS pp pp pp
0.0000000000000000e+00 1.3168533823700001e+01
0.0000000000000000e+00 1.3168533823700001e+01
0.0000000000000000e+00 3.5381309593600001e+01
ITEM: ATOMS id type x y z
143 6 4.01127 1.16967 0.721184
149 6 1.56128 1.89399 0.973825
163 7 3.90155 2.80153 3.25721
101 4 3.08144 3.8814 0.716578
144 6 0.0762966 3.98495 1.1961
108 4 2.95017 0.186161 3.13798
104 4 8.3871 2.73827 1.18823
147 6 5.70925 0.791849 3.34537
159 7 5.71626 2.911 1.28896
166 7 6.9225 0.402088 0.831931
109 4 6.45653 3.60975 3.59395
171 7 8.61815 1.13592 3.26586
127 5 11.0387 2.21994 2.09172
167 7 12.6875 0.37247 0.841259
105 4 1.85569 5.90325 1.11104
120 5 2.61595 8.11433 1.66227
122 5 4.48321 5.40554 2.26449
102 4 5.73073 7.32411 0.801348
123 5 7.70276 5.37126 1.70034
165 7 4.84977 8.17128 3.41438
124 5 13.0798 6.72963 2.82778
145 6 9.48209 7.54587 1.58062
103 4 10.3628 4.85441 1.3773
169 7 9.57019 6.28502 3.84238
106 4 2.09229 12.4591 0.633094
128 5 2.94303 10.5349 2.38422
141 6 0.46197 10.3968 0.804128
113 4 0.368806 11.9981 2.89412
142 6 5.48292 9.7964 1.03614
100 4 4.87143 12.109 1.34443
107 4 7.51696 8.78456 2.0142
129 5 7.68926 11.6085 2.77905
148 6 9.39083 0.242222 0.50798
125 5 11.6236 9.54598 2.58764
115 4 11.3412 11.5226 0.270939
121 5 9.44662 10.6414 1.23915
116 4 10.972 12.7266 2.69786
126 5 1.59933 4.25043 3.43286
151 6 0.317182 1.47262 3.36974
117 4 2.65242 4.28638 5.94621
130 5 1.9256 1.16918 5.68833
131 5 4.83355 2.39201 5.76721
134 5 7.88907 1.89992 5.64591
177 7 13.1066 2.87738 5.94517
175 7 12.3944 13.1112 5.67016
178 7 10.8548 1.73938 4.71177
172 7 9.20796 3.75358 3.67758
136 5 3.08004 6.73066 6.72921
152 6 0.48693 5.96797 5.73039
153 6 0.779914 8.93481 6.32681
168 7 2.79107 6.8045 4.25014
110 4 6.99256 6.52162 3.90414
112 4 4.7216 5.28264 4.70614
133 5 5.60945 7.37431 6.33213
156 6 7.8034 4.9677 5.9524
173 7 8.52548 7.5708 6.11467
132 5 11.8481 4.43406 4.09847
137 5 10.6229 5.7713 6.4933
150 6 11.7196 7.81814 5.08965
161 7 0.930606 9.21679 3.55915
111 4 1.63039 11.6568 4.9142
164 7 3.55701 9.4275 5.16887
176 7 3.84468 12.2562 5.96786
114 4 5.23394 11.2556 3.74989
155 6 6.93449 12.3641 5.33103
162 7 5.60479 10.6028 6.91625
170 7 6.743 9.24994 4.83588
174 7 8.66215 10.6221 6.72897
139 6 9.63192 12.5113 5.30214
118 4 10.4113 8.75781 7.04339
154 6 9.49234 9.4719 4.34328
157 6 11.8761 10.6467 5.24293
61 3 2.25894 3.53207 10.4315
68 3 2.29269 0.752931 9.32953
79 3 13.0752 0.422014 9.97879
140 6 0.103864 0.66943 7.9344
69 3 3.0409 3.59194 7.96267
23 1 7.67951 3.18914 9.20891
39 2 4.11894 2.9436 8.72126
76 3 4.80514 1.72215 9.1776
119 5 5.4381 0.353274 7.48134
1 1 8.84005 0.845845 10.5978
43 3 4.53623 4.3725 9.69462
30 2 10.9885 1.28739 7.21496
48 3 9.12176 1.60682 9.1105
67 3 11.4413 1.81885 8.70431
160 7 10.0395 3.19549 6.38284
18 1 11.9737 3.82901 8.59627
9 1 8.46791 0.588363 8.00163
22 1 10.5729 2.28493 10.0776
10 1 1.33788 4.39501 8.40285
12 1 1.7638 7.38367 10.2553
44 3 2.13769 6.03351 8.74276
54 3 2.0446 8.6887 8.20666
20 1 2.94962 5.35264 10.575
56 3 4.09729 8.45024 7.70081
62 3 3.77409 7.39882 10.2226
38 2 0.931436 3.78047 10.9763
74 3 5.58911 8.4999 9.31389
42 2 5.59581 5.49682 9.33625
57 3 5.19236 6.42164 8.23967
82 3 5.84846 6.34673 10.7539
94 3 7.08157 5.09537 8.96731
34 2 5.09921 7.80797 10.5587
158 6 7.45619 9.07694 8.16824
45 3 8.07726 7.85587 10.0057
27 1 9.07016 6.60376 9.14835
77 3 12.9444 8.02498 9.57701
92 3 0.029376 3.62524 9.77703
135 5 12.4882 6.97103 7.90025
80 3 10.5987 3.95821 10.1155
5 1 11.7095 8.63296 10.9188
99 4 0.829228 11.5382 7.05886
32 2 2.55888 0.0810298 7.95901
96 3 0.880315 10.4553 9.24433
138 5 3.20335 10.536 7.82376
60 3 3.38577 10.2705 9.78386
29 2 1.95942 10.4578 10.4871
78 3 7.14458 12.8962 9.0885
7 1 5.32511 10.1303 10.2947
31 2 7.44925 11.9277 7.91114
98 3 7.37089 10.0885 10.5083
89 3 9.87233 12.3741 9.36297
19 1 12.7942 11.5004 10.9805
14 1 12.3624 9.92961 7.96179
15 1 9.19907 9.32737 9.74568
88 3 11.6284 10.459 9.60044
146 6 10.902 11.7618 7.65614
8 1 2.03435 0.251296 11.0074
36 2 2.88617 0.952631 13.1994
59 3 1.2165 0.624987 12.727
71 3 2.88351 2.33924 13.5788
93 3 3.57401 0.800721 11.7984
4 1 3.71797 3.06534 11.7381
21 1 12.7626 1.45663 11.8112
26 1 4.88241 0.471204 10.7735
41 2 6.75952 2.08114 12.2364
55 3 6.89675 2.2412 13.6592
63 3 5.57111 2.91399 11.6089
73 3 7.95804 2.80565 11.3859
95 3 7.11211 0.676624 11.7288
24 1 9.46903 2.95731 12.5089
47 3 10.0384 1.31266 11.7736
58 3 0.123716 3.19473 12.0787
65 3 10.2398 4.50946 12.8215
75 3 1.33201 5.54096 11.2251
17 1 12.4263 6.27114 11.7448
51 3 3.4423 5.03472 12.5795
52 3 13.0315 7.84039 12.4858
83 3 4.15855 7.17 13.844
3 1 4.04827 8.74134 13.2527
37 2 4.37604 5.80926 13.3175
11 1 7.08721 4.71506 12.0506
46 3 5.8894 5.64144 13.4095
90 3 8.55074 5.4596 11.3737
28 1 8.3514 7.59333 11.7437
85 3 5.1614 8.82886 11.7054
33 2 10.0115 5.03916 11.3763
72 3 10.9862 6.15333 11.1557
86 3 3.31169 12.8308 13.8154
2 1 1.98627 11.5844 13.5843
35 2 0.738745 9.26462 12.674
50 3 3.25604 10.3517 13.107
87 3 1.59715 11.65 11.2085
91 3 1.8716 9.13674 11.3883
64 3 0.921971 10.0253 13.9882
81 3 5.1201 11.9048 11.0139
6 1 7.23549 11.8797 11.6722
13 1 4.74963 11.5974 13.0767
16 1 7.61603 0.225743 14.0723
97 3 6.39609 12.223 13.3995
40 2 10.1291 13.079 12.4891
53 3 9.41451 0.314541 13.7241
70 3 12.626 9.88902 11.7465
25 1 10.5279 10.9848 11.1804
49 3 9.86351 9.19747 11.3311
66 3 11.4417 12.4231 12.1113
84 3 9.2731 12.2158 11.6976
ITEM: TIMESTEP
4700
ITEM: NUMBER OF ATOMS
178
ITEM: BOX BOUNDS pp pp pp
0.0000000000000000e+00 1.3168533823700001e+01
0.0000000000000000e+00 1.3168533823700001e+01
0.0000000000000000e+00 3.5381309593600001e+01
ITEM: ATOMS id type x y z
143 6 4.03526 1.22254 0.736636
149 6 1.39739 1.78731 1.32826
163 7 3.64646 2.71349 3.2783
101 4 2.85058 3.68666 1.10912
144 6 12.9973 4.20263 1.22695
108 4 3.17229 0.044625 3.2983
104 4 8.45397 3.10121 1.1983
147 6 5.8122 1.02719 3.32614
159 7 5.86695 3.07268 1.301
166 7 7.0882 0.595048 0.816176
109 4 6.53981 3.70263 3.74033
171 7 8.46165 1.1154 3.09085
127 5 11.05 2.29719 1.8982
167 7 12.7424 0.342051 0.810603
105 4 1.92352 5.84377 1.3073
120 5 3.02916 7.97641 1.50336
122 5 4.46546 5.28031 2.35502
102 4 5.41894 7.20506 0.923484
123 5 7.53013 5.38092 1.69146
165 7 4.7936 8.24983 3.34698
124 5 13.0565 6.54576 2.73959
145 6 10.0496 7.4288 1.47521
103 4 10.4986 5.00429 1.59206
169 7 9.39803 6.46987 3.83354
106 4 2.0325 12.2478 0.786881
128 5 2.79328 10.3323 2.48182
141 6 0.50609 10.1327 0.807794
113 4 0.213286 11.7324 2.92287
142 6 5.67158 9.98733 1.42085
100 4 5.05212 12.2684 1.32522
107 4 7.65407 8.15599 2.064
129 5 7.50594 11.7178 2.73164
148 6 9.83341 0.213632 0.657438
125 5 11.6267 9.55688 2.4325
115 4 11.5007 11.3925 0.521472
121 5 9.20788 10.269 1.20371
116 4 10.9579 12.5483 2.77902
126 5 1.57685 4.4148 3.55547
151 6 0.0890546 1.54563 3.59056
117 4 2.75571 4.14892 5.67846
130 5 1.96577 1.13485 5.75139
131 5 4.55408 1.9548 5.71772
134 5 7.44866 2.16117 5.65328
177 7 13.0296 2.94862 5.94619
175 7 12.5313 13.1196 5.64611
178 7 10.6475 1.42085 4.49434
172 7 9.0723 3.87746 3.81346
136 5 2.78183 6.68627 6.86549
152 6 0.638608 5.99243 5.75458
153 6 0.714421 8.95895 6.41558
168 7 2.68265 6.94482 4.10168
110 4 6.62945 6.72457 3.89137
112 4 4.99968 5.13676 5.09523
133 5 5.4642 7.54521 6.14543
156 6 7.87749 4.98667 6.01949
173 7 8.60115 7.66417 6.31071
132 5 11.9197 4.48304 3.88248
137 5 10.6918 5.7832 6.36585
150 6 11.6684 7.74662 4.77361
161 7 0.859397 8.83336 3.63492
111 4 1.62581 11.301 4.92463
164 7 3.21345 9.42158 5.22379
176 7 3.90533 12.4867 6.05629
114 4 4.89562 11.2103 3.84696
155 6 6.90013 12.5054 5.4462
162 7 5.56093 10.5 6.75978
170 7 6.77988 9.52983 4.80457
174 7 8.74276 10.4348 6.4989
139 6 9.70058 12.2917 5.13975
118 4 10.8635 8.90441 6.97669
154 6 9.33211 9.41387 3.91886
157 6 11.888 10.5499 5.23733
61 3 2.29355 3.20074 10.6904
68 3 2.28447 0.503854 9.40126
79 3 13.1543 0.794854 10.1289
140 6 0.150463 1.18832 8.08637
69 3 3.58996 4.03748 7.6398
23 1 7.89802 3.20126 9.49382
39 2 4.25048 3.12314 8.71118
76 3 4.66049 1.73708 9.21851
119 5 5.70792 0.317567 7.6291
1 1 8.01632 0.398917 10.4334
43 3 4.67912 4.29177 9.81848
30 2 11.1733 1.39393 6.9505
48 3 8.72731 1.54372 9.38583
67 3 11.1762 2.18308 8.55903
160 7 10.0995 3.41088 6.05756
18 1 11.8897 3.88752 8.50063
9 1 9.23307 0.852084 7.52124
22 1 10.4451 1.85957 10.0983
10 1 1.33338 4.3742 7.8213
12 1 1.90433 7.47299 10.2669
44 3 2.50359 5.95591 9.00777
54 3 2.01641 8.32339 8.15347
20 1 2.70752 5.18097 10.6417
56 3 4.18474 8.57023 7.71654
62 3 3.74992 7.5753 10.5173
38 2 0.933224 3.7493 10.7654
74 3 5.67214 8.63279 9.20942
42 2 5.52626 5.40082 9.15153
57 3 4.82136 6.46423 8.03069
82 3 5.80938 6.45625 10.4039
94 3 7.03898 4.73873 9.1088
34 2 5.2367 7.78546 10.5298
158 6 7.24986 8.93486 7.8522
45 3 8.33961 7.96337 9.43267
27 1 8.56866 6.13859 8.53533
77 3 0.02798 7.63448 9.72313
92 3 0.38251 3.78301 9.38804
135 5 12.3693 6.96595 7.9164
80 3 10.774 3.93542 10.369
5 1 11.6458 8.96608 10.2718
99 4 0.783723 11.8276 7.22157
32 2 2.58093 0.339183 7.95145
96 3 0.962877 10.8464 9.59744
138 5 2.9036 10.4417 7.60439
60 3 3.29221 10.0896 9.64635
29 2 2.19459 10.5904 10.5043
78 3 7.05507 12.8263 9.04873
7 1 5.2547 10.4671 9.79006
31 2 7.36681 11.7122 8.06119
98 3 8.07356 10.8224 9.48392
89 3 10.6389 12.8739 9.08835
19 1 12.6645 12.139 10.7739
14 1 12.7808 10.2929 8.79217
15 1 9.5269 10.1225 9.54783
88 3 11.265 10.9739 9.8334
146 6 11.0141 11.5396 7.60061
8 1 1.83556 0.788486 11.0192
36 2 2.95299 0.785469 13.1436
59 3 1.25055 1.09709 12.852
71 3 3.54265 2.2276 13.7164
93 3 3.61076 0.618364 11.8452
4 1 3.73391 3.07939 12.1492
21 1 12.6405 1.53143 12.5469
26 1 4.94274 0.33857 10.7838
41 2 6.86733 2.41656 12.1663
55 3 7.68817 1.90887 13.4152
63 3 5.48357 2.88224 11.8416
73 3 7.94473 3.29404 11.4116
95 3 6.74016 0.948661 11.5169
24 1 9.54975 2.97642 12.9295
47 3 10.0643 1.49883 12.1182
58 3 13.0745 2.95875 11.7309
65 3 10.3702 4.5538 12.7477
75 3 1.05845 5.35872 11.2728
17 1 13.0587 6.7437 11.794
51 3 3.90433 5.19411 12.1167
52 3 0.00523167 7.93386 12.8056
83 3 3.82597 6.60306 14.1496
3 1 3.69176 8.73571 12.2477
37 2 4.52603 5.42524 13.546
11 1 6.9184 5.25048 11.6934
46 3 5.98161 5.20735 13.5977
90 3 8.84426 5.69659 10.944
28 1 9.82735 7.64713 10.9552
85 3 5.53544 8.78621 11.7465
33 2 10.3094 5.01574 11.3371
72 3 11.3093 6.2493 11.4006
86 3 3.38401 12.7183 14.1534
2 1 2.34916 11.1731 14.0034
35 2 0.504237 9.34453 12.6713
50 3 3.66441 10.0111 13.4369
87 3 2.10758 11.7981 11.5716
91 3 1.81586 9.2785 11.4106
64 3 0.705149 10.4916 13.5785
81 3 5.53022 11.7043 11.0638
6 1 6.95684 11.2705 12.0672
13 1 5.0037 11.3497 13.6272
16 1 7.88238 0.201922 13.2089
97 3 6.71076 11.9408 13.704
40 2 10.1151 13.1646 12.5779
53 3 9.48205 12.9353 13.925
70 3 12.6263 9.82544 11.5673
25 1 11.0922 10.5747 12.257
49 3 9.95109 9.51416 11.1953
66 3 11.5469 12.4456 12.2552
84 3 8.99818 12.3782 11.6011
ITEM: TIMESTEP
4800
ITEM: NUMBER OF ATOMS
178
ITEM: BOX BOUNDS pp pp pp
0.0000000000000000e+00 1.3168533823700001e+01
0.0000000000000000e+00 1.3168533823700001e+01
0.0000000000000000e+00 3.5381309593600001e+01
ITEM: ATOMS id type x y z
143 6 4.20135 1.33827 0.683466
149 6 1.48592 1.88508 1.26497
163 7 3.71715 2.62169 3.21228
101 4 2.82708 3.82524 0.809702
144 6 12.9466 3.85165 1.08896
108 4 2.70987 0.167992 3.45713
104 4 8.38063 3.07325 1.08385
147 6 5.87226 0.78709 3.21014
159 7 5.69558 3.19074 1.2224
166 7 7.18476 0.788607 0.705695
109 4 6.5623 3.65182 3.63108
171 7 8.43918 1.2719 3.04631
127 5 10.7411 2.25514 1.99111
167 7 12.6167 0.162689 1.1389
105 4 2.08492 5.82283 1.40344
120 5 2.89069 7.9469 1.62151
122 5 4.2763 5.42952 2.78953
102 4 5.6559 7.1425 1.20453
123 5 7.88224 5.64024 1.62873
165 7 4.79834 8.08221 3.59039
124 5 13.1432 6.64015 2.22302
145 6 10.5434 7.62479 1.60649
103 4 10.4421 4.92824 1.42346
169 7 9.41441 6.30448 3.84683
106 4 2.2007 12.5339 1.08929
128 5 3.03583 10.4655 2.59085
141 6 0.809369 10.0355 0.851005
113 4 0.368515 11.8392 2.90884
142 6 5.74203 9.75348 1.85439
100 4 4.89873 12.0833 1.50675
107 4 7.7403 8.30571 2.04336
129 5 7.74853 11.8003 2.75079
148 6 9.71358 13.1678 0.574682
125 5 11.8705 9.73295 2.37747
115 4 11.5963 11.0789 0.416551
121 5 9.21292 10.2879 1.09059
116 4 10.9446 12.4319 2.80144
126 5 1.38066 3.92149 3.48756
151 6 12.8723 1.58171 3.53427
117 4 2.65995 4.04121 5.67163
130 5 1.76333 1.25236 5.66541
131 5 4.94884 1.93621 5.61377
134 5 7.88979 2.17298 5.70854
177 7 12.9446 3.12566 5.94805
175 7 12.3319 4.77033e-05 5.56963
178 7 10.3441 1.70551 4.71539
172 7 9.01128 3.98358 3.70411
136 5 2.71528 6.66512 6.78648
152 6 0.268714 6.05547 5.38382
153 6 0.735861 8.77221 6.33926
168 7 2.57825 6.73427 4.28909
110 4 6.72315 6.49254 4.00934
112 4 4.76718 5.02527 5.48713
133 5 5.27484 7.49762 6.29475
156 6 7.58555 5.04226 6.02898
173 7 8.59376 7.67234 5.8937
132 5 11.6788 4.32496 4.01787
137 5 10.5297 5.68239 6.44346
150 6 11.5414 7.85718 4.67769
161 7 0.898489 8.96256 3.77311
111 4 1.72542 11.4816 5.08579
164 7 3.40258 9.37501 5.31234
176 7 3.75308 12.482 6.29889
114 4 4.86596 11.4558 3.98328
155 6 7.03775 12.5736 5.62536
162 7 5.53985 10.5792 6.65447
170 7 6.7385 9.5689 4.54379
174 7 8.71092 10.3897 6.55195
139 6 9.59206 12.247 5.18305
118 4 10.5797 8.8449 6.86782
154 6 9.51702 9.43228 3.82445
157 6 11.9875 10.4666 5.13219
61 3 2.15011 3.01758 10.9859
68 3 3.31246 0.584597 9.32168
79 3 0.565412 0.64443 9.99915
140 6 0.134485 1.17078 8.02779
69 3 3.62652 3.19566 7.91026
23 1 7.48188 2.88278 9.00405
39 2 4.8894 3.03127 8.69637
76 3 5.93268 1.93943 9.15022
119 5 5.61258 0.498262 7.67297
1 1 8.72343 13.0126 10.0922
43 3 5.3066 4.31953 9.35139
30 2 11.2751 1.43587 6.90426
48 3 8.78049 1.7875 9.32986
67 3 11.0983 2.17313 8.25618
160 7 9.98081 3.54607 6.36986
18 1 11.9054 3.88823 8.70275
9 1 9.54125 0.766952 7.56856
22 1 10.3737 2.00128 10.0273
10 1 1.65261 4.01921 8.43304
12 1 2.12292 7.57171 10.1193
44 3 2.30335 5.92425 8.82587
54 3 1.68586 8.73659 8.21373
20 1 2.70672 5.21308 10.7513
56 3 3.84766 8.2155 7.89335
62 3 3.79797 7.53793 10.5816
38 2 0.659737 3.60176 10.8507
74 3 5.57122 8.99262 9.39932
42 2 5.8569 5.73781 8.99987
57 3 4.81443 6.24212 8.07091
82 3 6.00939 6.50314 10.2892
94 3 7.42492 5.31462 8.7213
34 2 5.39456 7.88054 10.5251
158 6 7.11623 8.86443 7.72727
45 3 7.71992 7.95347 9.55537
27 1 8.74229 6.58195 8.61616
77 3 0.0778702 7.85626 9.43925
92 3 0.355397 3.30343 9.38844
135 5 12.44 7.10675 7.79066
80 3 10.5814 4.13582 9.86831
5 1 11.4158 7.75647 10.901
99 4 0.887539 11.986 7.20118
32 2 2.58838 0.531346 8.01078
96 3 1.3334 10.7285 9.57146
138 5 2.97938 10.3189 7.73505
60 3 3.65232 10.1993 9.8152
29 2 2.32231 10.5379 10.687
78 3 6.59162 12.6437 9.32712
7 1 5.07942 11.2872 9.38672
31 2 7.3106 11.6139 8.27663
98 3 7.97408 10.709 9.9616
89 3 10.4332 12.6663 9.27782
19 1 12.427 11.6127 10.2326
14 1 13.1504 9.51008 9.11067
15 1 9.21352 9.66027 9.30114
88 3 11.341 10.1277 9.23277
146 6 11.3686 11.8593 7.51883
8 1 2.24419 0.420801 11.0502
36 2 2.92056 0.989799 13.4758
59 3 1.46137 0.820833 12.9898
71 3 3.24579 2.36842 14.2712
93 3 3.6773 1.18171 12.0655
4 1 3.6755 2.98511 12.5471
21 1 12.9506 1.34891 12.2207
26 1 5.17854 0.592606 10.9674
41 2 6.81867 2.26276 12.1428
55 3 7.9005 2.10633 13.2766
63 3 5.47083 2.903 12.3943
73 3 7.61802 3.32068 10.8865
95 3 6.84867 0.831538 11.5213
24 1 9.50434 2.46068 12.5447
47 3 10.5632 1.08675 11.646
58 3 12.925 3.11856 11.926
65 3 9.87409 4.37237 12.2488
75 3 0.952316 5.34151 11.0841
17 1 13.1465 6.36478 12.3285
51 3 3.97199 4.90151 12.2168
52 3 0.592947 8.07976 13.165
83 3 4.0681 6.91434 13.5109
3 1 4.11628 8.49661 12.6586
37 2 4.8783 5.88471 12.8699
11 1 7.6198 4.96603 11.6262
46 3 6.3651 5.93484 12.799
90 3 8.73719 6.34585 10.9457
28 1 8.09631 7.90146 11.5789
85 3 5.84079 8.47758 11.8557
33 2 10.3001 5.20813 11.0111
72 3 11.4714 6.2036 11.499
86 3 3.44297 12.8936 14.1152
2 1 2.39121 11.5928 13.658
35 2 0.435377 9.42838 12.5634
50 3 3.94563 10.2488 13.4621
87 3 2.43092 11.8461 11.5461
91 3 1.82955 9.2356 11.3258
64 3 0.741374 10.7064 13.388
81 3 5.06916 11.5335 11.0295
6 1 6.90695 10.8327 11.3232
13 1 5.18338 11.2295 13.1332
16 1 7.95587 12.9046 12.7693
97 3 6.96026 11.142 13.1242
40 2 10.3269 13.0183 12.3154
53 3 9.81421 0.150686 13.7312
70 3 12.6295 9.52341 11.515
25 1 10.8723 10.1017 12.2682
49 3 10.0812 8.90848 11.2522
66 3 11.5227 12.1673 11.6587
84 3 8.94998 12.2256 11.5675
ITEM: TIMESTEP
4900
ITEM: NUMBER OF ATOMS
178
ITEM: BOX BOUNDS pp pp pp
0.0000000000000000e+00 1.3168533823700001e+01
0.0000000000000000e+00 1.3168533823700001e+01
0.0000000000000000e+00 3.5381309593600001e+01
ITEM: ATOMS id type x y z
143 6 4.13048 1.14974 0.571494
149 6 1.6277 1.67063 1.17432
163 7 3.91031 2.62778 3.14527
101 4 3.12425 3.64466 0.627242
144 6 12.8599 3.62005 1.05666
108 4 3.19319 0.280158 3.42881
104 4 8.17005 3.03111 1.08024
147 6 5.83333 0.936061 3.14126
159 7 5.69764 3.36863 1.10849
166 7 6.94601 0.734253 0.642841
109 4 6.41685 3.54616 3.67265
171 7 8.51797 1.14893 3.08506
127 5 10.4943 2.12354 1.74236
167 7 12.5855 0.234276 0.997223
105 4 1.89115 5.59462 1.42202
120 5 2.9407 8.05487 1.94767
122 5 4.07719 5.3032 2.77406
102 4 5.62636 6.95166 1.31729
123 5 7.88493 5.45891 1.47565
165 7 4.58883 7.81895 3.91974
124 5 13.1029 6.59737 2.58982
145 6 10.5646 7.74905 1.84304
103 4 10.528 4.84694 1.27545
169 7 9.60683 6.37487 3.63913
106 4 2.23962 12.4066 0.797095
128 5 3.19494 10.8 2.75958
141 6 1.06132 10.4123 0.954704
113 4 0.46851 12.0799 3.14029
142 6 5.69531 9.66706 1.91514
100 4 5.14704 12.0427 1.33826
107 4 7.91738 8.4103 2.24686
129 5 7.54331 11.6555 2.74651
148 6 9.36353 12.9254 0.42737
125 5 11.8949 9.92469 2.5206
115 4 11.7703 11.3587 0.242613
121 5 9.58895 10.3296 1.16438
116 4 10.8109 12.7376 2.75128
126 5 1.43765 3.89338 3.23201
151 6 12.9263 1.62368 3.37032
117 4 2.3452 4.04444 5.54011
130 5 1.81382 1.30213 5.75112
131 5 4.6339 1.99921 5.63547
134 5 7.50192 2.03784 5.72008
177 7 12.8133 3.07923 5.89182
175 7 12.4758 0.102674 5.55019
178 7 10.4443 1.86773 4.89589
172 7 8.86508 3.79314 3.86984
136 5 2.45116 6.43649 6.96059
152 6 0.198449 5.87107 5.30194
153 6 0.824265 8.70977 6.22896
168 7 2.4849 6.66965 4.39673
110 4 6.97978 6.25563 3.79315
112 4 4.77403 5.04789 5.18028
133 5 5.56059 7.37191 6.19864
156 6 7.59963 4.95277 6.07657
173 7 8.27971 7.71443 5.69635
132 5 11.5979 4.40037 3.61304
137 5 10.3347 6.16426 6.30272
150 6 11.6536 7.85954 4.64712
161 7 1.15666 9.05019 3.55727
111 4 1.6569 11.5437 5.28519
164 7 3.58778 9.51123 5.32837
176 7 3.73924 12.5428 6.36485
114 4 5.09009 11.6773 4.04223
155 6 6.97051 12.6796 5.49101
162 7 5.56859 10.6722 6.76731
170 7 6.69853 9.35476 4.6791
174 7 8.52402 10.6744 6.55519
139 6 9.78995 12.4689 5.30554
118 4 10.5469 9.01165 6.78496
154 6 9.63658 9.8456 4.24113
157 6 12.0517 10.6392 5.37749
61 3 2.33453 3.35771 11.2792
68 3 3.3131 0.481886 9.52361
79 3 0.557106 0.869922 9.92486
140 6 0.108796 0.864871 7.96787
69 3 2.97758 3.2972 9.02523
23 1 7.04162 2.44958 8.72507
39 2 4.4313 3.10806 8.64701
76 3 5.29204 1.77666 9.1185
119 5 5.7275 0.273279 7.6819
1 1 8.33244 12.9218 10.1586
43 3 5.18634 4.29628 9.46162
30 2 11.1857 1.33045 7.20292
48 3 8.34214 1.36395 9.23519
67 3 11.2733 1.40947 8.81737
160 7 9.69388 3.57001 6.7844
18 1 11.9761 4.22472 8.64577
9 1 9.2026 0.292684 7.60776
22 1 10.1542 2.12006 10.1744
10 1 1.41696 3.96303 8.49026
12 1 1.89724 7.06556 10.6215
44 3 2.53962 5.84667 9.00495
54 3 1.79241 8.34029 8.23694
20 1 3.23905 4.78609 10.4827
56 3 3.75153 8.08735 7.25381
62 3 3.95595 7.68612 10.3717
38 2 0.847804 3.75314 11.0511
74 3 5.38524 8.50505 8.69747
42 2 5.94569 5.67515 9.04983
57 3 4.94354 6.05353 7.90847
82 3 6.36415 6.66032 10.2603
94 3 7.33934 5.1298 8.73155
34 2 5.29151 7.97218 10.0793
158 6 7.17733 8.88843 7.81665
45 3 8.49539 7.75813 9.11624
27 1 8.98214 6.07106 8.67805
77 3 12.5848 7.55135 9.44903
92 3 0.28101 3.45971 9.67427
135 5 12.4581 6.95952 7.66427
80 3 11.0425 4.62931 10.1064
5 1 11.0129 8.06812 11.3468
99 4 0.910057 11.7751 7.2862
32 2 2.54237 0.259687 8.28026
96 3 0.904505 10.5792 9.29796
138 5 2.98349 10.2688 7.70569
60 3 3.48808 10.2311 9.82173
29 2 2.0988 10.6441 10.3753
78 3 6.39559 12.6365 9.55962
7 1 4.65198 11.5176 9.42409
31 2 6.90404 11.3941 8.56272
98 3 7.42376 10.5519 9.77419
89 3 9.71332 12.284 8.87247
19 1 12.8493 10.9746 10.8626
14 1 12.5083 9.8349 8.66199
15 1 9.46596 10.1433 9.42117
88 3 11.4428 10.548 9.74702
146 6 11.3711 11.8318 7.55455
8 1 2.1047 0.808867 10.9356
36 2 2.47016 0.91421 13.5195
59 3 1.18195 0.261599 12.6513
71 3 2.48254 2.402 13.9217
93 3 3.80204 1.01245 12.0876
4 1 3.75243 2.90486 12.3399
21 1 12.8258 1.10724 11.5807
26 1 5.31416 0.658232 10.9804
41 2 7.26766 2.31552 12.0333
55 3 8.34981 2.00973 13.1016
63 3 5.92584 2.7414 12.4631
73 3 7.77039 3.13835 10.7469
95 3 7.24538 0.869022 11.3608
24 1 10.069 2.3787 12.86
47 3 11.0284 1.32893 11.3367
58 3 13.1608 2.99921 12.1024
65 3 10.0849 4.06459 12.2878
75 3 0.908973 5.37384 10.9434
17 1 12.9547 6.04737 12.5469
51 3 4.17062 5.03561 12.2561
52 3 0.974644 7.40191 12.2461
83 3 4.68571 7.24651 13.4087
3 1 4.25441 8.81479 12.3731
37 2 5.1293 5.9439 12.9578
11 1 7.31965 5.02531 11.0965
46 3 6.5527 5.54807 12.6338
90 3 9.04266 6.10168 10.9611
28 1 8.46573 7.68034 11.1677
85 3 5.91529 9.08046 11.1354
33 2 10.4154 5.19402 11.3457
72 3 11.161 6.31746 12.097
86 3 2.96744 12.7675 14.1448
2 1 1.96562 11.5592 13.1032
35 2 0.654865 8.96675 12.3835
50 3 4.08443 10.5743 13.2223
87 3 2.39743 11.8917 10.9693
91 3 1.53384 9.36899 11.0631
64 3 1.09188 9.72945 13.6752
81 3 5.0233 12.0251 11.2456
6 1 6.83298 10.5392 11.645
13 1 4.34103 12.2216 12.9092
16 1 8.11988 0.0263638 12.9169
97 3 7.28334 11.7883 13.1007
40 2 10.659 12.931 11.9584
53 3 10.1011 0.250147 13.3185
70 3 12.3423 9.39112 11.8567
25 1 10.9244 10.4364 11.5627
49 3 9.53702 9.38533 11.5308
66 3 12.0701 12.3341 11.6952
84 3 9.67962 12.1272 11.2921
ITEM: TIMESTEP
5000
ITEM: NUMBER OF ATOMS
178
ITEM: BOX BOUNDS pp pp pp
0.0000000000000000e+00 1.3168533823700001e+01
0.0000000000000000e+00 1.3168533823700001e+01
0.0000000000000000e+00 3.5381309593600001e+01
ITEM: ATOMS id type x y z
143 6 4.35741 1.09401 0.495755
149 6 1.62858 1.77878 1.23706
163 7 3.67422 2.79585 2.96592
101 4 2.91252 3.61882 0.741031
108 4 3.15395 0.182133 3.29753
126 5 1.36541 4.08304 3.36169
104 4 8.10016 2.71651 1.45638
147 6 5.92401 1.2414 3.10529
159 7 5.62748 3.24244 0.976499
166 7 6.97184 0.562334 0.647138
109 4 6.3387 3.86346 3.43451
171 7 8.52709 0.873242 3.27631
144 6 12.7729 3.59599 0.903633
127 5 10.7055 2.12534 1.93292
167 7 12.7118 0.573624 0.699545
151 6 12.9431 1.78003 3.42595
105 4 1.73037 5.78226 1.27771
120 5 2.88753 7.88285 1.71981
122 5 4.19989 5.23639 2.34411
102 4 5.75374 7.01083 1.1793
123 5 7.87643 5.47036 1.66376
107 4 8.0305 8.25674 2.64287
124 5 13.0568 6.50729 2.67422
145 6 10.5476 7.93568 1.80994
103 4 10.269 4.86488 1.50894
106 4 2.56052 12.4562 0.730143
128 5 3.00921 10.413 2.40921
141 6 0.690375 10.6325 0.909784
113 4 0.655881 12.4006 2.94575
142 6 5.46578 9.39175 2.01791
100 4 5.24527 11.8887 1.40625
129 5 7.80069 11.5939 2.6892
148 6 9.4981 13.0042 0.699154
125 5 12.0621 10.1811 2.84746
115 4 11.4871 11.4155 0.407425
121 5 9.49076 10.3078 1.52222
116 4 11.1744 12.743 2.77808
117 4 2.63913 3.87005 5.60487
130 5 1.80593 1.14882 5.58106
131 5 4.63856 1.85019 5.46581
134 5 7.50042 2.33379 5.6805
177 7 12.7011 2.88762 6.05013
175 7 12.5 0.113675 5.60065
178 7 10.4934 1.91033 4.66033
172 7 9.05498 3.974 3.87876
160 7 9.7638 3.38959 6.68053
136 5 2.52355 6.15763 6.96727
152 6 0.213527 5.45539 5.79847
153 6 1.03003 8.64837 6.20266
168 7 2.21337 6.85395 4.31274
165 7 4.64454 7.75247 3.74696
110 4 6.62606 6.42145 3.95795
112 4 4.7161 4.94713 5.26437
133 5 5.56369 7.30154 6.47382
156 6 7.54739 5.08527 5.9431
173 7 8.45509 7.74746 5.6388
169 7 9.56197 6.34306 3.73113
132 5 11.8356 4.44989 3.72146
137 5 10.5478 5.56835 6.14322
150 6 11.7956 8.13435 4.80848
161 7 1.08422 9.17446 3.56531
111 4 1.70342 11.366 4.91432
164 7 3.57183 9.64843 4.98903
176 7 3.83011 12.3266 6.1756
114 4 5.10252 11.5935 3.92401
155 6 7.03948 12.6768 5.35655
162 7 5.69169 10.6389 6.94448
170 7 6.49731 9.55544 4.85393
174 7 8.35122 10.8542 6.58119
139 6 9.96763 12.5533 5.2265
118 4 10.1931 8.91495 6.89017
154 6 9.62913 9.85266 4.21519
157 6 12.2531 10.7483 5.44611
68 3 2.85603 0.0828678 9.53071
79 3 0.177446 0.51755 10.0497
140 6 0.0161361 0.839737 8.02169
69 3 3.1712 3.18641 8.15283
39 2 4.27892 2.23878 8.01337
10 1 1.46195 3.51548 7.86635
92 3 0.231779 3.25244 9.45765
23 1 7.35698 3.55042 8.86176
76 3 5.06802 1.58075 9.18918
119 5 5.73421 0.457494 7.61296
43 3 4.68366 4.19706 10.1678
30 2 11.1014 1.22907 7.15707
48 3 8.80287 2.04474 8.57688
67 3 11.1652 1.47376 8.75245
18 1 12.3738 4.35398 8.56035
9 1 8.80947 0.549769 7.8529
22 1 9.77912 2.31458 9.93501
12 1 1.99529 6.7077 10.566
44 3 2.34979 5.90578 9.09727
54 3 1.90119 7.97468 8.03837
20 1 3.09577 4.734 10.5303
56 3 3.8563 8.02661 7.4229
74 3 5.42418 8.37484 8.75427
42 2 5.3071 5.32733 9.32213
57 3 4.6608 5.61686 7.93643
82 3 5.5374 6.26151 10.4486
94 3 6.79509 5.26432 8.83257
34 2 5.04302 7.87221 10.1172
45 3 7.80046 7.79762 9.70246
27 1 9.08698 6.70945 9.10066
77 3 12.5304 8.30759 9.06788
135 5 12.1637 7.09071 7.59119
80 3 11.6747 5.08501 10.1916
90 3 9.2912 5.56112 10.6098
99 4 0.88918 11.58 7.0873
32 2 2.4968 12.9731 8.03534
96 3 1.27139 10.2686 9.04949
138 5 3.07283 9.90814 7.48282
60 3 3.28417 9.98775 9.96554
29 2 1.8513 9.94585 10.3318
7 1 4.02037 11.6036 9.75232
1 1 8.30088 12.7511 10.5263
158 6 7.67142 8.90458 7.78644
78 3 6.81465 13.0093 9.20156
31 2 7.22938 11.6132 8.59242
98 3 7.75771 10.8293 10.023
89 3 9.37801 12.5613 9.19801
14 1 12.6708 9.74916 8.19088
15 1 9.72608 10.2353 9.43264
88 3 11.6114 10.9178 9.69726
146 6 10.9626 11.6946 7.72202
61 3 2.34585 2.7362 10.7714
38 2 1.01241 3.49265 10.9625
8 1 2.03725 0.848432 10.9064
36 2 2.44709 0.894659 13.4472
59 3 1.07401 1.12657 12.7592
71 3 2.95768 2.22967 14.0499
93 3 3.40636 0.710609 12.2323
4 1 4.08802 3.00435 12.837
26 1 5.02254 0.773124 10.9308
41 2 7.18678 2.33845 12.2368
55 3 8.2966 2.23788 13.398
63 3 5.68729 2.43387 12.3339
73 3 7.64139 3.40733 11.2378
95 3 7.23932 0.923085 11.523
21 1 12.6182 1.42672 11.475
24 1 9.94623 2.88554 13.0794
47 3 10.7462 1.44029 11.51
58 3 12.9233 3.24259 11.7953
40 2 10.7221 0.0198383 12.4939
53 3 10.6667 0.539146 13.7891
62 3 3.65208 7.67024 10.6663
75 3 1.44168 5.13639 11.2104
51 3 4.27865 4.86395 12.7322
52 3 0.629632 7.24665 12.911
35 2 0.654007 8.69171 12.6083
91 3 1.18113 8.58646 10.9632
83 3 5.0694 7.49091 12.9611
37 2 5.26822 6.03074 12.9729
11 1 7.61523 5.17857 11.528
46 3 6.69637 5.42028 13.2096
5 1 11.3281 8.19715 10.8914
65 3 10.6168 4.49277 12.6035
17 1 13.086 5.66382 12.4393
33 2 10.7391 5.37459 11.3766
72 3 11.1716 6.72236 11.956
3 1 3.80307 8.86933 12.3251
2 1 2.1119 11.0805 13.4368
50 3 3.9981 10.5316 12.8545
87 3 1.51392 11.1925 11.4171
64 3 1.48583 9.48506 13.4935
28 1 7.80062 9.11382 10.7366
85 3 5.7594 8.88505 10.9598
81 3 5.03666 12.228 10.9868
6 1 6.0192 11.0533 11.3293
13 1 4.64285 12.2892 12.8062
16 1 8.02389 12.783 13.1947
97 3 6.91965 11.4956 12.9
19 1 13.0599 11.7611 11.0068
70 3 12.4855 9.52585 12.0105
25 1 10.8835 10.4099 12.1285
49 3 9.85018 9.07282 10.8461
66 3 11.7137 12.1525 12.1828
84 3 9.46839 12.2882 11.9751
86 3 2.57205 12.717 14.1593
ITEM: TIMESTEP
5100
ITEM: NUMBER OF ATOMS
178
ITEM: BOX BOUNDS pp pp pp
0.0000000000000000e+00 1.3168533823700001e+01
0.0000000000000000e+00 1.3168533823700001e+01
0.0000000000000000e+00 3.5381309593600001e+01
ITEM: ATOMS id type x y z
143 6 4.23278 1.08743 0.431627
149 6 1.76774 1.93601 1.23166
163 7 3.73267 2.71707 2.93493
101 4 2.57747 4.18713 0.536281
108 4 3.27578 0.0691908 3.17644
126 5 1.48965 4.22867 3.38349
104 4 8.09362 2.92859 1.53593
147 6 6.07639 0.978921 2.88312
159 7 5.57095 3.14454 0.975112
166 7 7.29433 0.356721 0.738694
109 4 6.24441 3.84398 3.62203
171 7 8.62708 0.972259 3.31429
144 6 12.9168 3.90389 1.09436
127 5 10.6823 2.41114 2.00373
167 7 12.7431 0.678591 0.788472
151 6 0.0056964 1.78699 3.48396
105 4 1.43822 5.81642 1.27329
120 5 2.64339 7.94394 1.7368
122 5 4.21288 5.30623 2.31209
102 4 5.81748 7.2042 1.13522
123 5 7.7888 5.42519 1.62744
107 4 7.89219 8.60443 2.33116
124 5 12.7955 6.78633 2.61653
145 6 10.5556 7.96518 2.0712
103 4 10.4577 4.94825 1.44984
106 4 2.23572 12.645 0.540916
128 5 2.90339 10.4804 2.16275
141 6 0.431445 10.9328 0.61593
113 4 0.608239 12.2152 2.84441
142 6 5.57042 9.53412 2.14102
100 4 5.18172 12.035 1.21441
129 5 7.42693 11.4977 2.94806
148 6 9.65765 0.20034 0.774239
125 5 11.8111 10.0497 2.66522
115 4 11.4133 11.7192 0.411745
121 5 9.41022 10.3746 1.24059
116 4 11.3876 12.8512 2.82222
117 4 2.42553 3.60501 5.63867
130 5 1.91085 0.945932 5.49845
131 5 4.74075 1.71277 5.40994
134 5 7.48429 2.25766 5.42822
177 7 12.7951 2.81993 6.07412
175 7 12.4545 0.0123461 5.55719
178 7 10.5391 1.83659 4.78596
172 7 8.93506 3.96835 3.9078
160 7 9.75393 3.22783 6.66552
136 5 2.78861 6.05619 6.76871
152 6 0.385013 5.63717 5.99751
153 6 1.10829 8.50125 6.15903
168 7 2.17319 6.55958 4.30124
165 7 4.50804 7.50808 3.68807
110 4 6.7462 6.63833 3.87755
112 4 4.51966 5.19044 5.08463
133 5 5.62548 7.49355 6.34983
156 6 7.80071 5.1756 6.05954
173 7 8.58547 7.73763 5.90437
169 7 9.67587 6.49232 3.7987
132 5 11.6763 4.39708 3.92412
137 5 10.6169 5.36867 6.22803
150 6 11.7842 7.71796 4.94862
161 7 0.930512 9.12515 3.46126
111 4 1.87214 11.4169 4.73053
164 7 3.6088 9.52476 4.82748
176 7 3.90229 12.2496 6.2432
114 4 4.90424 11.5533 4.06541
155 6 6.9007 12.6774 5.41497
162 7 5.74357 10.7134 7.0787
170 7 6.646 9.4148 4.84671
174 7 8.57661 10.6303 6.70443
139 6 9.76957 12.2339 5.12018
118 4 10.4285 9.20726 6.9546
154 6 9.60016 9.59237 4.28273
157 6 12.1274 10.4038 5.57134
68 3 2.58755 0.197061 9.37035
79 3 0.226518 0.41541 10.0289
140 6 13.0642 0.622987 7.94649
69 3 3.36605 3.81494 7.92133
39 2 4.33219 2.6546 7.71285
10 1 1.43592 4.22546 8.34336
92 3 0.323277 3.54365 9.74398
23 1 7.21719 3.08981 9.21179
76 3 4.74118 1.72371 8.80486
119 5 5.7445 0.350387 7.57458
43 3 5.12918 4.22899 9.84154
30 2 11.0467 1.13263 7.01433
48 3 9.03125 2.70836 8.73311
67 3 11.3307 1.55256 9.04347
18 1 12.0941 3.54156 8.52661
9 1 8.78676 0.736056 7.24291
22 1 9.89503 1.84513 9.85755
12 1 1.85545 7.45178 9.91699
44 3 2.25409 5.57875 8.65993
54 3 2.17901 7.97219 8.1614
20 1 3.33163 4.24423 9.81044
56 3 3.74809 8.14418 7.22324
74 3 5.63759 8.31888 8.6413
42 2 5.72135 5.50276 9.04283
57 3 4.79769 6.23387 8.01684
82 3 6.04582 6.314 10.2602
94 3 7.39749 5.14633 8.81846
34 2 5.42145 7.65347 10.0325
45 3 8.15384 7.95048 9.69337
27 1 8.83789 6.22083 8.58011
77 3 12.8755 7.85473 9.48974
135 5 11.9304 7.29261 7.73056
80 3 11.6074 4.71865 10.2396
90 3 9.28566 5.6458 10.0908
99 4 1.00594 11.7123 7.03964
32 2 2.50793 0.104914 7.89571
96 3 0.716586 10.4237 9.27872
138 5 3.11886 10.0273 7.29942
60 3 3.20916 10.201 9.7503
29 2 1.72195 10.3293 10.5374
7 1 3.78103 11.7767 9.34207
1 1 8.59604 0.227492 10.7015
158 6 7.50702 8.83805 7.96531
78 3 7.6842 0.175428 8.9035
31 2 7.5605 11.8179 8.51948
98 3 7.73043 11.1795 9.93706
89 3 10.28 12.6301 9.67013
14 1 12.7015 9.65172 8.25231
15 1 9.60802 10.4111 9.65249
88 3 11.322 10.4113 9.49199
146 6 10.8711 11.8963 7.69875
61 3 2.36163 2.94836 10.7523
38 2 1.09046 3.69013 11.1119
8 1 1.80495 1.00128 10.9571
36 2 2.70436 0.648717 13.3274
59 3 1.2366 0.915268 12.7332
71 3 3.06141 1.68745 14.2958
93 3 3.54699 0.589425 12.1173
4 1 4.17039 3.00314 13.5747
26 1 5.27561 1.11055 10.8996
41 2 7.08765 2.4129 12.2339
55 3 8.006 2.76383 13.3184
63 3 5.52463 2.58365 12.4112
73 3 7.40857 3.11968 10.9321
95 3 7.03409 0.748398 11.5987
21 1 12.7813 1.32035 12.9006
24 1 9.88703 2.87379 12.9021
47 3 9.88136 1.37016 11.54
58 3 0.0458741 3.19484 12.177
40 2 10.4257 0.234696 12.8265
53 3 10.7712 1.24462 13.8146
62 3 3.85609 7.55904 10.3706
75 3 1.37832 5.10201 11.1469
51 3 4.05833 4.78076 12.9879
52 3 0.212955 7.082 12.8656
35 2 0.504017 8.59798 12.5429
91 3 1.46241 8.82043 11.2483
83 3 4.58795 7.35263 13.5698
37 2 4.94191 5.98318 13.1227
11 1 7.68299 5.03736 10.8482
46 3 6.36534 5.68861 12.6069
5 1 10.8918 8.61969 10.7017
65 3 10.1139 4.29245 11.9165
17 1 12.8129 5.68227 11.9568
33 2 10.4906 5.40657 10.9403
72 3 10.9586 6.73652 11.5835
3 1 4.12741 8.38465 12.0821
2 1 2.04892 10.8145 13.0298
50 3 3.70298 10.2544 12.1618
87 3 1.36764 11.6331 11.3676
64 3 1.33639 9.34732 13.7303
28 1 7.78736 8.07073 11.5474
85 3 5.88835 8.54334 11.2143
81 3 5.07215 12.4509 10.2044
6 1 5.9254 10.5118 10.9407
13 1 4.16545 11.9294 11.9598
16 1 7.43336 12.6829 13.1389
97 3 6.09893 11.5693 12.6922
19 1 13.0543 11.9962 10.5288
70 3 12.4024 9.45817 12.3833
25 1 11.0557 10.656 12.5569
49 3 9.79786 9.92646 11.4901
66 3 11.4685 12.5599 12.3161
84 3 9.24499 12.4181 13.1059
86 3 2.84843 12.3339 13.6576
ITEM: TIMESTEP
5200
ITEM: NUMBER OF ATOMS
178
ITEM: BOX BOUNDS pp pp pp
0.0000000000000000e+00 1.3168533823700001e+01
0.0000000000000000e+00 1.3168533823700001e+01
0.0000000000000000e+00 3.5381309593600001e+01
ITEM: ATOMS id type x y z
143 6 4.29011 1.0095 0.337317
149 6 1.79432 2.2236 1.03076
163 7 3.89412 2.58071 3.01041
101 4 2.98591 4.08498 0.644153
108 4 3.09651 0.191398 3.09217
126 5 1.64229 4.19464 3.35844
104 4 8.1849 2.85703 1.34265
147 6 5.90458 0.943234 3.03226
159 7 5.68783 3.05413 0.98738
166 7 7.1419 0.439599 0.63924
109 4 6.42935 3.75229 3.50754
171 7 8.66068 1.07936 3.17812
144 6 12.8374 4.08646 1.31403
127 5 10.8158 2.5326 2.13959
167 7 12.7733 0.870006 1.04478
151 6 0.169077 1.71445 3.56862
105 4 1.57791 6.26211 1.3404
120 5 3.04844 8.07545 1.83777
122 5 4.25476 5.44621 2.16971
102 4 5.72432 7.29887 1.33677
123 5 7.77557 5.60259 1.55553
107 4 7.80063 8.39714 1.86866
124 5 12.7358 6.46016 2.85969
145 6 10.4925 7.90684 1.74307
103 4 10.3875 5.15436 1.71093
106 4 2.04092 12.8348 0.603589
128 5 2.67705 10.8414 2.23306
141 6 0.486073 10.9709 0.53655
113 4 0.491446 12.1135 3.10483
142 6 5.34372 9.58077 2.32736
100 4 5.01832 11.9636 1.29187
129 5 7.6161 11.6175 2.78496
148 6 9.72998 0.559356 0.392014
125 5 11.7168 10.3197 2.65526
115 4 11.5514 11.8013 0.0710469
121 5 9.40293 11.0873 1.36277
116 4 11.0786 12.9514 2.64801
117 4 2.42324 3.70147 5.70469
130 5 1.66952 0.914466 5.66841
131 5 4.67043 1.53731 5.33248
134 5 7.38952 2.1224 5.59705
177 7 12.9953 2.86184 6.03526
175 7 12.445 12.8461 5.42031
178 7 10.5503 1.79338 4.83431
172 7 8.96706 3.81519 3.96322
160 7 9.53577 3.14037 6.81861
136 5 2.88896 6.59501 6.55498
152 6 0.27077 5.70213 5.82223
153 6 0.999841 8.45415 6.18632
168 7 2.24652 6.66619 4.20256
165 7 4.68566 7.35309 3.78775
110 4 6.87899 6.54292 3.86425
112 4 4.47298 4.67953 4.88757
133 5 5.78077 7.15785 6.13533
156 6 7.61692 5.02919 5.97513
173 7 8.74121 7.54485 6.41437
169 7 9.461 6.34851 3.86117
132 5 11.775 4.46868 4.11523
137 5 10.5655 5.60373 6.48795
150 6 11.6271 7.76685 4.92564
161 7 0.91412 9.03124 3.43458
111 4 1.88563 11.2177 5.06857
164 7 3.52689 9.24748 4.8437
176 7 3.77238 12.4642 6.41892
114 4 4.89786 11.6677 3.97932
155 6 6.92132 12.5476 5.53122
162 7 5.70617 10.6335 6.77385
170 7 6.73179 9.28731 4.76665
174 7 8.55028 10.6746 6.63738
139 6 9.96178 12.0199 4.99988
118 4 10.5558 9.108 7.09538
154 6 9.59232 9.40913 4.25464
157 6 12.1584 10.3751 5.46728
68 3 2.71999 0.857991 9.33214
79 3 0.119125 0.150739 9.89388
140 6 13.1373 0.642729 7.97331
69 3 3.20295 3.40273 8.5683
39 2 4.42924 2.6873 8.2866
10 1 1.75594 4.31563 8.59578
92 3 0.857125 3.32012 9.61973
23 1 7.49071 2.48787 8.92088
76 3 5.36864 2.14828 9.25663
119 5 5.47299 0.335098 7.87542
43 3 5.54192 5.24522 10.054
30 2 11.3206 1.00964 6.83969
48 3 9.21216 2.54402 8.76416
67 3 12.1222 2.04502 9.04105
18 1 12.1979 3.89767 8.61858
9 1 9.15669 0.271315 7.11106
22 1 10.5633 1.81775 9.79412
12 1 1.753 7.18203 9.84694
44 3 2.53745 5.83293 8.67794
54 3 2.27781 8.05114 8.39845
20 1 3.74559 5.56453 10.083
56 3 4.27819 8.2763 7.57054
74 3 5.39819 9.36882 9.27324
42 2 5.94312 5.55899 8.73075
57 3 4.92595 6.00042 7.70407
82 3 6.49193 7.27714 9.14713
94 3 6.69058 4.28416 8.35752
34 2 5.29005 7.94828 10.0946
45 3 8.36413 8.49324 10.0447
27 1 9.21491 6.95846 9.25586
77 3 12.9326 7.44332 9.68071
135 5 12.3045 7.09868 7.75815
80 3 11.22 4.80077 9.99319
90 3 8.48841 5.61444 10.4276
99 4 0.832751 11.4968 7.13773
32 2 2.57945 0.234391 7.93316
96 3 0.65348 10.6797 9.4117
138 5 3.09267 10.1054 7.44444
60 3 3.11781 10.1075 9.51786
29 2 1.8434 10.1275 10.4593
7 1 3.18698 11.7815 9.46457
1 1 8.4865 0.0927997 10.2623
158 6 7.1486 8.97933 8.16221
78 3 7.63816 0.339678 8.75933
31 2 7.45199 11.833 8.46891
98 3 7.51968 11.4228 9.93847
89 3 10.0147 12.4945 9.1386
14 1 12.5866 9.70801 8.70472
15 1 9.40282 10.4641 10.1662
88 3 11.266 10.3201 9.84338
146 6 11.2478 11.7374 7.80539
61 3 2.69209 3.74503 11.119
38 2 1.23488 3.869 11.0189
8 1 2.03239 0.929702 10.9418
36 2 2.82644 0.293086 13.2418
59 3 1.32649 0.348107 12.7095
71 3 3.28701 1.67783 13.7505
93 3 3.57044 0.194779 11.7665
4 1 3.79787 2.92472 12.4349
26 1 5.13118 0.857207 10.9388
41 2 6.78109 2.1417 11.8242
55 3 7.45348 2.78376 12.9403
63 3 5.2701 2.58179 11.5214
73 3 7.49051 2.86904 10.6473
95 3 7.05079 0.671677 11.4724
21 1 12.7916 1.46724 13.0799
24 1 9.44188 2.90876 12.6647
47 3 9.7337 1.13541 11.2379
58 3 0.325028 3.15215 12.1538
40 2 10.4827 0.453332 12.5012
53 3 11.1196 1.84411 13.0179
62 3 4.00376 7.31853 10.3152
75 3 0.929457 5.34943 10.7231
51 3 4.48776 4.41748 13.3492
52 3 0.0352532 7.35916 12.477
35 2 0.214265 8.74312 12.8326
91 3 1.68277 8.7667 10.8578
83 3 4.02144 6.91465 12.8071
37 2 4.87468 5.75993 12.8438
11 1 6.91332 4.51851 11.093
46 3 6.30232 5.93437 12.255
5 1 10.693 8.87566 11.2518
65 3 9.77085 4.40736 11.9726
17 1 12.1776 5.82275 11.61
33 2 9.98407 5.33975 10.8347
72 3 10.347 7.18972 11.3005
3 1 3.42523 8.57474 11.72
2 1 2.17404 10.7124 13.192
50 3 3.82959 10.2763 12.0769
87 3 1.58539 11.2281 11.5126
64 3 1.16349 9.56931 13.6082
28 1 7.41674 7.3704 11.253
85 3 5.9227 8.56927 11.3636
81 3 5.16294 12.5217 9.83341
6 1 5.69498 10.5288 10.815
13 1 4.58707 11.7984 12.3021
16 1 7.72216 12.6589 12.9023
97 3 6.49812 11.3856 12.5733
19 1 13.031 12.0287 11.2223
70 3 12.3247 9.87325 12.3594
25 1 10.9202 10.904 12.9267
49 3 9.54317 9.88728 11.9737
66 3 11.4795 12.336 11.784
84 3 9.63655 12.8785 13.5085
86 3 3.10017 12.2043 13.8915
ITEM: TIMESTEP
5300
ITEM: NUMBER OF ATOMS
178
ITEM: BOX BOUNDS pp pp pp
0.0000000000000000e+00 1.3168533823700001e+01
0.0000000000000000e+00 1.3168533823700001e+01
0.0000000000000000e+00 3.5381309593600001e+01
ITEM: ATOMS id type x y z
143 6 4.29005 1.08899 0.512628
149 6 1.68717 2.33559 0.924143
163 7 3.75679 2.71726 2.77774
101 4 2.96314 4.17715 0.59868
108 4 2.79507 0.270731 3.47515
126 5 1.72409 4.24174 3.31451
104 4 8.46252 3.00274 1.07584
147 6 5.90274 0.967249 3.14963
159 7 5.76149 3.05897 0.903083
166 7 7.12766 0.434198 0.663364
109 4 6.57637 3.46985 3.32962
171 7 8.52177 0.852323 2.9902
144 6 12.9888 4.06335 1.23317
127 5 10.7995 2.48508 2.06324
167 7 12.8761 0.859529 0.834478
151 6 0.0264647 1.88872 3.49929
105 4 2.00994 6.06548 1.41021
120 5 3.18671 8.07256 1.96991
122 5 4.83417 5.31764 2.34909
102 4 5.76284 7.2543 1.11432
123 5 7.8428 5.37301 1.55943
107 4 7.8887 8.49049 2.2442
124 5 12.9203 6.55596 2.81893
145 6 10.2926 7.82712 1.77029
103 4 10.3724 5.05906 1.67228
106 4 2.24006 12.8814 0.966162
128 5 2.8526 10.6086 2.3834
141 6 0.528567 10.8326 0.889431
113 4 0.2059 12.112 2.98273
142 6 5.47697 9.47168 2.4145
100 4 4.89209 12.0015 1.68836
129 5 7.19823 11.3463 3.10052
148 6 9.73728 0.875775 0.0653597
125 5 11.496 10.1853 2.57143
115 4 11.4543 12.0704 0.375128
121 5 9.2165 11.4683 1.45596
116 4 11.1472 0.068567 2.6342
117 4 2.61788 3.89601 5.69139
130 5 1.84356 0.89524 5.9252
131 5 4.61767 1.79159 5.37042
134 5 7.48516 2.12232 5.53895
177 7 12.8525 2.73002 6.22467
175 7 12.5199 0.00763317 5.62541
178 7 10.4789 1.60133 4.82188
172 7 9.05766 3.8944 4.04478
160 7 9.67655 3.20853 6.75245
136 5 3.12634 6.44711 6.56175
152 6 0.491061 5.64072 5.65974
153 6 0.871508 8.66958 6.15111
168 7 2.33944 6.78047 4.06781
165 7 4.8452 7.21536 4.30722
110 4 7.04507 6.37406 3.85355
112 4 4.84173 4.80474 5.01809
133 5 5.77719 7.20051 6.69615
156 6 7.38326 4.75893 6.0146
173 7 8.41032 7.52583 6.23675
169 7 9.57475 6.48007 3.90296
132 5 11.5876 4.23584 4.29391
137 5 10.2987 5.42856 6.54824
150 6 11.5645 7.80655 4.95237
161 7 0.759233 9.01987 3.36457
111 4 1.53731 11.234 4.88552
164 7 3.57062 9.33137 4.87163
176 7 3.57171 12.2803 6.28826
114 4 4.64575 11.6663 4.15143
155 6 7.14615 12.655 5.45975
162 7 5.49677 10.5189 6.48087
170 7 6.69278 9.20637 4.83043
174 7 8.58021 10.5509 6.51975
139 6 10.0651 12.0102 4.82072
118 4 10.3319 8.88879 6.99957
154 6 9.28279 9.43512 4.07646
157 6 12.2999 10.3059 5.36721
68 3 2.87329 0.894998 9.476
79 3 0.164131 13.0571 9.86137
140 6 0.0074555 0.879114 8.0805
69 3 3.49085 3.75883 8.47178
39 2 4.48174 2.78122 7.99353
10 1 1.554 4.48321 8.23137
92 3 1.39873 3.63833 9.79821
23 1 7.75883 3.17396 9.06061
76 3 5.36381 2.04818 9.02336
119 5 5.61087 13.0371 7.50453
43 3 5.04947 5.53601 10.5628
30 2 10.8335 0.553479 7.04701
48 3 9.15134 1.88276 8.47723
67 3 12.1879 2.07474 9.56988
18 1 11.9775 3.66566 8.91098
9 1 8.89633 0.323558 7.31749
22 1 10.4001 1.56744 9.69921
12 1 2.01482 7.62715 9.71926
44 3 1.9608 6.14662 8.83119
54 3 2.15178 8.1376 7.79598
20 1 3.41122 5.11879 9.89086
56 3 4.25565 8.18221 7.76644
74 3 5.8888 9.50232 9.35966
42 2 5.60612 5.68623 9.27874
57 3 4.61674 5.64256 8.10104
82 3 5.99566 7.09992 9.05257
94 3 6.68895 4.78828 9.25685
34 2 5.16983 8.18453 9.9041
45 3 8.05899 8.31259 9.89018
27 1 9.21176 6.99239 9.03796
77 3 12.4623 8.11461 9.34101
135 5 12.2157 7.00479 7.55247
80 3 10.7031 4.44329 10.1037
90 3 8.4752 5.57224 10.6947
99 4 1.02724 11.6315 7.26231
32 2 2.63144 0.155693 8.15281
96 3 1.21776 10.0076 9.12475
138 5 3.24939 10.3555 7.74953
60 3 3.34895 10.0575 9.88799
29 2 1.65717 9.90792 10.5302
7 1 3.27253 11.9396 10.1182
1 1 8.37625 0.0222429 10.3034
158 6 7.25098 9.23506 7.80451
78 3 7.64996 0.055076 8.70431
31 2 7.43187 11.8273 8.33588
98 3 7.75144 11.0887 9.59765
89 3 10.4027 12.9784 8.41431
14 1 12.7944 9.38581 8.31839
15 1 9.21306 10.2279 9.76185
88 3 11.0054 10.3386 9.43525
146 6 11.2735 11.4138 7.52796
61 3 2.81627 4.48774 11.4194
38 2 1.1833 4.40017 11.2214
8 1 1.5073 1.25062 10.8453
36 2 2.92534 0.516183 13.0923
59 3 1.16594 0.559481 12.939
71 3 3.22843 2.05438 12.9645
93 3 3.19476 13.0883 11.6701
4 1 4.04382 3.46895 12.6531
26 1 4.60929 0.858632 10.6108
41 2 6.87881 2.04417 11.8702
55 3 7.88652 2.24749 13.0942
63 3 5.51219 2.66289 11.7199
73 3 7.68476 2.9628 10.7318
95 3 7.0648 0.566477 11.383
21 1 13.0645 1.69738 13.0196
24 1 9.20396 2.99231 12.162
47 3 9.67732 1.08748 11.2815
58 3 0.573935 3.3137 12.0401
40 2 10.6859 0.543327 12.3261
53 3 11.1611 1.86516 13.1069
62 3 3.83586 7.60151 10.0445
75 3 0.560242 5.8354 10.8892
51 3 5.03507 4.53561 13.8577
52 3 12.1275 7.55307 12.9487
35 2 12.9165 8.84547 12.9154
91 3 1.83066 8.58053 11.1561
83 3 4.27452 6.68751 12.8933
37 2 5.41644 5.93106 13.2825
11 1 6.93247 4.4647 11.0526
46 3 6.73819 6.41444 13.0118
5 1 10.9566 9.10489 10.6859
65 3 9.77532 4.78275 12.2398
17 1 12.4484 6.81224 11.3306
33 2 9.96402 5.44605 10.8409
72 3 10.4646 6.9485 10.8398
3 1 3.61396 7.93924 11.8821
2 1 2.21632 10.156 13.1866
50 3 4.1173 9.77389 12.8834
87 3 1.25075 10.9077 11.5748
64 3 1.07706 8.92865 13.5325
28 1 7.36521 7.96765 11.7234
85 3 5.61665 8.17698 11.4247
81 3 5.16617 12.5942 9.75962
6 1 5.71843 10.3885 11.4133
13 1 4.73915 11.2744 13.8199
16 1 7.99846 12.149 12.6361
97 3 6.60861 11.104 13.0315
19 1 12.7492 11.5272 10.7468
70 3 12.3658 9.70297 11.7773
25 1 10.6372 11.0188 12.6287
49 3 9.28524 10.3228 11.5009
66 3 11.7439 12.6564 11.9072
84 3 9.65284 12.6489 13.2178
86 3 3.60696 12.6575 14.1302
ITEM: TIMESTEP
5400
ITEM: NUMBER OF ATOMS
178
ITEM: BOX BOUNDS pp pp pp
0.0000000000000000e+00 1.3168533823700001e+01
0.0000000000000000e+00 1.3168533823700001e+01
0.0000000000000000e+00 3.5381309593600001e+01
ITEM: ATOMS id type x y z
143 6 4.07857 1.15907 0.544714
149 6 1.75255 2.18558 0.977625
163 7 3.96212 2.79819 2.77063
101 4 3.2198 4.12282 0.465126
108 4 2.91757 0.408395 3.52553
126 5 1.6687 4.25454 3.21015
104 4 8.34594 3.02215 1.1811
147 6 5.86317 0.829574 2.95152
159 7 5.9559 3.08046 0.870002
166 7 7.2076 0.347757 0.799698
109 4 6.47609 3.59363 3.36731
171 7 8.66456 1.01505 2.91358
144 6 13.0212 4.11346 1.14993
127 5 10.8841 2.56299 2.07249
167 7 12.895 0.797928 0.731373
151 6 0.0602863 1.85871 3.48342
105 4 1.69972 5.84042 1.26072
120 5 3.03954 7.84189 1.96916
122 5 4.32528 5.25656 2.44382
102 4 5.90615 7.0324 1.39692
123 5 8.07178 5.55048 1.60021
107 4 8.04783 8.42168 2.11221
124 5 12.9606 6.58429 2.6008
145 6 10.4146 7.7481 1.88144
103 4 10.7596 5.13119 1.55442
106 4 1.98637 12.7068 1.0523
128 5 2.72193 10.7328 2.60708
141 6 0.417048 10.7064 0.905767
113 4 0.234809 12.2047 3.16014
142 6 5.20505 9.44244 2.4856
100 4 4.99536 11.8964 1.40209
129 5 7.21266 11.0483 3.25718
148 6 9.90684 0.785917 0.25506
125 5 11.3622 10.1514 2.33488
115 4 11.4687 11.8718 0.452708
121 5 8.90981 11.5892 1.59746
116 4 11.2593 0.0626584 2.49649
117 4 2.64479 3.79091 5.50979
130 5 1.65042 1.57753 5.85445
131 5 4.65957 1.63659 5.42628
134 5 7.49027 2.06458 5.54386
177 7 12.5238 2.81462 6.3362
175 7 12.4631 0.0524153 5.63773
178 7 10.3244 1.58675 4.81271
172 7 9.01855 3.82665 3.88602
160 7 9.92142 3.26735 6.53674
136 5 2.91298 6.5131 6.74437
152 6 0.449743 5.77209 5.70337
153 6 1.18363 8.47309 6.0174
168 7 2.44302 6.58725 4.32608
165 7 4.64653 7.39269 4.2637
110 4 6.90408 6.24619 3.97878
112 4 4.91242 4.69866 5.18673
133 5 5.67977 6.99825 6.71715
156 6 7.59878 4.80307 6.23574
173 7 8.28646 7.49826 5.83731
169 7 9.76519 6.26214 3.74741
132 5 11.8317 4.43028 4.174
137 5 10.2051 5.67161 6.34285
150 6 11.8414 7.80093 4.75963
161 7 0.732103 9.10367 3.26273
111 4 1.72287 11.4459 4.96653
164 7 3.32615 9.51566 4.98434
176 7 3.38707 12.4167 6.39641
114 4 4.86317 11.7257 4.1738
155 6 7.31837 12.728 5.44353
162 7 5.6835 10.8458 6.68211
170 7 6.53746 9.10578 5.06613
174 7 8.57799 10.5967 6.35574
139 6 9.96179 12.0967 4.59332
118 4 10.3075 8.64205 6.73185
154 6 9.60991 9.37202 4.21273
157 6 11.9461 10.4521 5.15056
68 3 2.75843 1.17752 9.20496
79 3 0.757676 13.0768 9.9248
140 6 13.1093 0.736061 8.22994
69 3 3.66431 3.764 8.38755
39 2 4.75348 2.94981 7.70086
10 1 1.80438 3.56931 8.48503
92 3 0.94287 3.76527 9.96482
23 1 7.65892 2.58986 9.03221
76 3 5.51158 2.07958 8.76645
119 5 5.39824 0.15341 7.49528
43 3 5.67059 5.30729 10.5165
30 2 10.8612 0.929893 6.90339
48 3 9.37649 2.70353 8.75329
67 3 11.8574 1.94195 9.76918
18 1 11.991 3.70201 9.22249
9 1 9.00316 0.320739 7.02646
22 1 10.0639 2.18107 10.3122
12 1 2.1481 7.25566 9.94727
44 3 2.24313 5.66469 8.84668
54 3 2.409 8.07394 8.10287
20 1 3.57504 5.07614 10.2636
56 3 4.1266 8.17292 7.53032
74 3 5.30946 9.09444 9.0968
42 2 5.78582 5.65446 9.1605
57 3 4.55311 5.9286 8.36411
82 3 6.41807 7.09847 9.49767
94 3 6.77051 4.64993 8.42694
34 2 5.17065 8.0025 10.1526
45 3 8.32551 8.81273 9.83809
27 1 8.51859 5.70424 9.01792
77 3 12.705 7.56342 9.42152
135 5 12.1423 6.8125 7.66433
80 3 10.4435 4.00639 10.3592
90 3 8.35691 5.38723 10.8607
99 4 0.728137 11.6559 7.18953
32 2 2.29363 0.639517 7.94912
96 3 1.02148 10.1935 9.3535
138 5 3.0067 10.1507 7.61141
60 3 3.34982 10.3975 9.8872
29 2 1.77906 9.9501 10.7112
7 1 3.22681 12.1395 9.73449
1 1 8.31755 0.130503 10.1723
158 6 7.41214 8.98212 8.08238
78 3 7.7343 0.457265 8.3933
31 2 7.49916 11.9084 8.03796
98 3 8.10087 11.4884 9.43959
89 3 10.4019 0.274465 8.33585
14 1 12.7441 9.43839 8.63203
15 1 9.52708 10.409 9.35732
88 3 11.7794 11.0982 9.27276
146 6 10.9802 11.5707 7.35642
61 3 2.79182 4.39293 11.7598
38 2 1.05527 4.35874 11.5486
8 1 2.12874 1.16695 10.9142
36 2 3.03729 0.468626 12.8606
59 3 1.48526 0.445093 12.8297
71 3 3.48769 1.94649 12.8871
93 3 3.56716 0.0159956 11.36
4 1 4.51651 3.43629 12.8934
26 1 5.27237 0.775998 10.8333
41 2 7.16771 1.95891 12.048
55 3 8.09959 2.0655 13.3137
63 3 5.85781 2.8421 11.8316
73 3 8.05892 2.64608 10.8703
95 3 6.94435 0.511867 11.5302
21 1 12.9663 1.5594 12.9293
24 1 9.6566 2.98331 13.3609
47 3 9.72641 0.529968 11.0701
58 3 0.350425 3.34925 12.5231
40 2 10.6539 0.167663 12.2435
53 3 11.0603 1.27557 13.2434
62 3 3.76979 7.57769 10.385
75 3 0.404999 5.74256 11.5019
51 3 5.66238 4.71246 13.6525
52 3 11.9684 7.60852 12.8934
35 2 12.4536 8.97778 13.2227
91 3 1.68365 8.65903 11.1583
83 3 4.70456 7.20555 13.9295
37 2 5.76368 6.27763 13.4212
11 1 6.9475 4.47453 11.4994
46 3 7.15094 6.55328 13.0801
5 1 10.3449 8.33327 10.5409
65 3 9.97528 4.62342 12.686
17 1 12.5224 7.00583 11.1878
33 2 9.93697 5.14425 11.3344
72 3 10.6082 6.41574 10.781
3 1 3.81788 8.13106 12.5794
2 1 1.38628 10.7936 13.5078
50 3 2.91364 9.87884 13.1031
87 3 1.53158 11.2654 11.5655
64 3 13.1135 9.7605 14.3201
28 1 7.54088 7.76683 11.7555
85 3 5.78003 8.49861 11.4397
81 3 5.44534 12.4415 9.7635
6 1 5.72154 10.6427 10.577
13 1 4.16387 11.3028 13.3297
16 1 7.42737 11.8875 12.5814
97 3 5.83399 10.997 12.4203
19 1 13.1018 11.5238 10.4287
70 3 12.181 10.0324 12.2207
25 1 10.7906 11.0942 12.3477
49 3 9.85377 9.77769 11.6739
66 3 11.8679 12.6006 11.7796
84 3 9.5302 12.2829 12.7618
86 3 3.59294 12.7673 14.0677
ITEM: TIMESTEP
5500
ITEM: NUMBER OF ATOMS
178
ITEM: BOX BOUNDS pp pp pp
0.0000000000000000e+00 1.3168533823700001e+01
0.0000000000000000e+00 1.3168533823700001e+01
0.0000000000000000e+00 3.5381309593600001e+01
ITEM: ATOMS id type x y z
143 6 4.34344 0.898118 0.462131
149 6 1.74253 2.19556 1.17388
163 7 4.05507 2.57255 2.96202
101 4 3.36517 3.82681 0.672359
108 4 2.88665 0.305748 3.31004
126 5 1.64594 3.98275 3.23354
104 4 8.48865 2.90628 1.03359
147 6 6.03414 0.817095 2.93197
159 7 5.8074 3.04016 0.933125
166 7 7.21106 0.280799 0.46698
109 4 6.5376 3.71949 3.29772
171 7 8.48116 1.12213 3.11232
144 6 12.9792 3.87491 0.86259
127 5 10.9309 2.46087 1.98151
167 7 12.7487 0.714641 0.882086
151 6 0.0957715 1.65378 3.52903
105 4 1.84914 5.69555 1.02358
120 5 2.68616 7.97211 2.02328
122 5 4.16435 5.21541 2.5112
102 4 5.74028 7.13464 1.58929
123 5 8.0667 5.57168 1.6102
107 4 7.57953 8.37345 2.81204
124 5 0.0516217 6.44428 2.66459
145 6 10.8191 7.89135 1.64219
103 4 10.5201 5.06831 1.35878
106 4 2.08172 12.862 0.71005
128 5 2.79448 10.9258 2.19234
141 6 0.468374 10.6574 0.716727
113 4 0.374239 12.1104 2.87106
142 6 5.09782 9.41663 2.48763
100 4 5.2528 11.9095 1.59953
129 5 7.36992 11.2899 3.40507
148 6 9.83715 0.591089 0.257524
125 5 11.4067 10.2951 2.65943
115 4 11.4138 11.7504 35.2882
121 5 9.11771 11.3633 1.48205
116 4 11.1976 12.9535 2.59245
117 4 2.45408 3.86169 5.70359
130 5 1.61006 0.885661 5.965
131 5 4.67915 1.63369 5.24321
134 5 7.34137 2.36435 5.47351
177 7 12.6161 2.96176 6.28682
175 7 12.1678 13.0926 5.50426
178 7 10.5735 1.78432 4.7048
172 7 9.10332 3.97936 3.85808
160 7 9.93888 3.45955 6.60861
136 5 2.88274 6.2928 6.84437
152 6 0.287595 5.51924 5.93619
153 6 0.899615 8.58103 6.16835
168 7 2.09765 6.622 4.33966
165 7 4.5888 7.4901 4.11109
110 4 6.91866 6.28886 3.99455
112 4 4.64558 4.74572 5.23829
133 5 5.67164 7.03139 6.50715
156 6 7.74444 4.87903 5.98311
173 7 8.39452 7.42805 6.04804
169 7 9.55777 6.38021 3.78174
132 5 11.8596 4.35217 3.89815
137 5 10.7601 5.9359 6.26117
150 6 11.8772 7.78306 4.6805
161 7 0.929785 9.33003 3.45416
111 4 1.58923 11.5187 5.00972
164 7 3.48729 9.581 4.89349
176 7 3.48382 12.5837 6.62382
114 4 4.63504 11.8947 4.46271
155 6 7.16453 12.8839 5.47695
162 7 5.7806 11.0813 7.0471
170 7 6.33266 9.28961 5.00634
174 7 8.43473 10.6143 6.45105
139 6 9.70504 11.9691 4.74062
118 4 10.5286 8.67959 6.99978
154 6 9.56882 9.23035 4.27149
157 6 12.1871 10.4226 5.38574
68 3 2.71932 1.47878 9.42229
79 3 0.535234 0.0429665 9.87932
140 6 12.8826 0.663472 7.95551
69 3 3.68227 4.14729 8.53242
39 2 4.78329 3.23488 8.13407
10 1 1.90047 4.27744 8.69068
92 3 0.826611 3.59885 9.87311
23 1 7.5294 2.94707 8.85863
76 3 5.69658 2.44791 9.08897
119 5 5.72419 0.679975 7.63907
43 3 5.59508 4.81568 10.6438
30 2 10.8189 1.02985 7.01346
48 3 9.28442 2.50223 8.36585
67 3 12.1462 1.83282 9.76164
18 1 12.1316 3.75385 9.00691
9 1 8.93024 0.422273 7.01963
22 1 10.1591 1.58071 9.49917
12 1 1.57772 7.26226 10.1101
44 3 2.35977 6.09099 9.106
54 3 2.14049 8.19067 7.85314
20 1 3.7618 5.47039 10.3339
56 3 3.97023 8.12377 7.47984
74 3 5.52032 8.78885 8.99025
42 2 6.17303 5.71912 9.29026
57 3 4.9663 6.19333 8.33895
82 3 6.76939 6.83028 10.2039
94 3 7.10005 4.65519 8.68634
34 2 5.53191 7.97011 10.3737
45 3 8.28158 8.92157 9.72896
27 1 8.8476 5.26574 8.77655
77 3 12.4983 7.97082 9.55489
135 5 12.4334 7.03692 8.037
80 3 11.2682 4.03922 10.6963
90 3 8.89292 4.79928 10.6103
99 4 0.726248 11.5963 7.168
32 2 2.40324 0.829975 8.06174
96 3 0.661606 10.5901 9.4603
138 5 3.08174 10.1061 7.46575
60 3 3.09897 9.88678 9.49659
29 2 1.70311 10.0666 10.3347
7 1 3.22537 12.12 9.92322
1 1 8.18029 0.349474 10.1836
158 6 7.42275 8.74551 7.83551
78 3 7.83468 0.213071 8.50465
31 2 7.40081 11.8263 8.47387
98 3 8.09755 11.755 9.99564
89 3 10.4419 0.150563 8.42084
14 1 12.3419 9.66413 8.65812
15 1 9.00047 10.195 9.16993
88 3 10.8462 10.7085 9.41079
146 6 10.8535 11.6611 7.29264
61 3 2.78945 3.89483 11.1737
38 2 1.28212 4.19188 11.4032
8 1 1.87798 1.4003 10.8938
36 2 3.01815 0.582146 12.772
59 3 1.43276 0.656189 12.6118
71 3 3.62135 1.78601 13.2908
93 3 3.65857 0.0246729 11.2785
4 1 4.48567 3.23532 12.4171
26 1 5.30532 0.638481 11.0644
41 2 7.29182 1.87602 11.8872
55 3 8.14656 2.52497 12.8268
63 3 5.87484 2.66287 11.7436
73 3 7.91745 2.20229 10.5106
95 3 7.05428 0.453145 11.7272
21 1 12.7389 1.56925 12.2786
24 1 9.79102 2.78646 13.0117
47 3 9.87396 0.595755 10.8958
58 3 0.445702 3.37951 12.3588
40 2 10.4781 13.0443 12.0746
53 3 10.9447 1.13338 13.0883
62 3 4.25495 7.28643 10.7927
75 3 0.861758 5.65453 11.4192
51 3 5.45683 5.22846 13.2198
52 3 12.4627 7.86742 13.4048
35 2 12.8197 9.29102 13.1097
91 3 2.0415 8.61886 11.0974
83 3 4.67474 7.58552 13.5477
37 2 5.69271 6.6879 13.0985
11 1 7.31548 4.41509 11.5225
46 3 7.09858 6.78994 12.553
5 1 9.62553 7.54719 10.392
65 3 9.88159 4.66852 12.924
17 1 12.2174 6.44861 11.993
33 2 10.2035 5.06615 11.4709
72 3 10.5772 6.53977 11.4997
3 1 3.70693 8.48339 12.2243
2 1 2.09094 11.071 13.6641
50 3 3.70205 10.0019 13.3648
87 3 1.74874 11.1814 11.3575
64 3 0.398336 10.5682 13.6387
28 1 8.53536 7.85004 12.8567
85 3 5.60043 9.0393 11.3884
81 3 5.60358 12.967 9.65168
6 1 5.5708 10.565 10.1086
13 1 4.44645 11.2684 12.8301
16 1 7.52723 11.9987 12.2222
97 3 5.84712 11.3272 12.0015
19 1 12.9007 11.766 10.6082
70 3 12.1668 9.78012 11.8126
25 1 10.5526 10.3609 11.4621
49 3 9.44215 8.9723 11.9379
66 3 11.6821 12.2104 11.7554
84 3 9.29809 11.9551 12.5808
86 3 3.16204 12.494 13.6017
ITEM: TIMESTEP
5600
ITEM: NUMBER OF ATOMS
178
ITEM: BOX BOUNDS pp pp pp
0.0000000000000000e+00 1.3168533823700001e+01
0.0000000000000000e+00 1.3168533823700001e+01
0.0000000000000000e+00 3.5381309593600001e+01
ITEM: ATOMS id type x y z
143 6 4.40348 0.726328 0.52601
149 6 1.8159 1.87968 1.16503
163 7 3.81995 2.60019 2.93469
101 4 3.25375 3.60036 0.42972
108 4 2.9592 0.244719 3.10097
126 5 1.62771 4.07983 3.56327
104 4 8.28517 3.02713 1.16586
147 6 6.03753 1.0745 3.11123
159 7 5.8186 2.94295 0.899111
166 7 7.25124 0.384474 0.61505
109 4 6.60785 3.52978 3.42078
171 7 8.68926 0.849265 2.94385
144 6 12.9129 3.82233 1.10509
127 5 10.8059 2.43285 1.88618
167 7 12.8452 0.61326 0.731761
151 6 13.0911 1.73076 3.4709
105 4 2.00839 5.38881 1.54549
120 5 2.86833 7.89573 2.05045
122 5 4.39951 5.19376 2.43542
102 4 5.44327 7.21873 1.24181
123 5 7.57147 5.54632 1.64486
107 4 7.56505 8.39412 2.86798
124 5 13.0922 6.44691 2.38456
145 6 10.8173 7.89413 2.05393
103 4 10.4658 5.07936 1.5392
106 4 2.07125 12.5277 0.407342
128 5 2.77647 10.721 2.25684
141 6 0.472366 10.795 0.653566
113 4 0.432174 12.2077 2.98434
142 6 5.33288 9.51246 2.39596
100 4 5.28868 11.9366 1.66468
129 5 7.31262 11.2893 3.43989
148 6 9.6828 0.486126 0.124208
125 5 11.7464 10.1928 2.64971
115 4 11.4395 11.6703 0.650294
121 5 8.96765 11.1779 1.66915
116 4 11.0755 12.9946 2.56135
117 4 2.39492 3.43378 5.7565
130 5 1.66392 0.985994 5.48161
131 5 4.48144 1.80366 5.56304
134 5 7.61148 2.36116 5.39484
177 7 12.8835 2.65232 6.00566
175 7 12.3364 13.0156 5.37913
178 7 10.4337 1.88767 4.64398
172 7 9.12958 3.97611 3.71736
160 7 9.99249 3.49444 6.44771
136 5 3.01869 6.3722 6.63906
152 6 0.386779 5.44904 5.89129
153 6 0.857897 8.66999 6.37575
168 7 2.00776 6.80906 4.35234
165 7 4.40722 7.40979 4.16116
110 4 6.7353 6.23342 3.99222
112 4 4.57616 4.69307 5.09943
133 5 5.57338 7.09379 6.40607
156 6 7.79846 4.99616 5.89276
173 7 8.49085 7.65056 5.99355
169 7 9.58791 6.60447 3.66777
132 5 11.818 4.49132 3.8664
137 5 10.6084 5.71054 6.41843
150 6 12.0031 7.76894 4.61354
161 7 0.847045 9.30262 3.5419
111 4 1.81473 11.6145 5.14803
164 7 3.40779 9.46899 4.75663
176 7 3.77586 12.5176 6.79819
114 4 4.68164 11.8131 4.30069
155 6 6.82307 12.9278 5.7099
162 7 5.60699 10.9541 6.99915
170 7 6.25139 9.36967 5.25643
174 7 8.33502 10.6318 6.46547
139 6 9.93363 12.1227 4.85536
118 4 10.4444 8.77986 6.68604
154 6 9.56298 9.53654 4.29193
157 6 12.136 10.4155 5.51631
68 3 2.2784 1.66098 9.25701
79 3 0.558744 0.0136522 9.56279
140 6 12.8573 0.645442 7.8218
69 3 3.37066 4.32953 8.19023
39 2 4.52251 3.54522 7.61141
10 1 1.50759 4.5472 8.19548
92 3 0.928875 4.01629 9.76332
23 1 7.6373 3.1249 8.6261
76 3 5.35036 2.81779 8.68275
119 5 5.61879 0.649868 7.75982
43 3 5.54221 4.66024 10.0664
30 2 10.8598 0.778458 6.65276
48 3 9.40784 2.81019 8.43047
67 3 12.2169 2.03942 9.53304
18 1 12.1085 3.97149 8.72925
9 1 8.8276 0.352008 7.30202
22 1 10.4196 1.7184 9.58178
12 1 2.18063 7.06241 10.5416
44 3 2.10125 6.22451 8.74031
54 3 2.11099 8.28169 7.91881
20 1 3.53803 5.35332 9.8633
56 3 3.89957 7.95591 7.38172
74 3 5.29649 8.29396 8.54916
42 2 6.06102 5.62028 9.05454
57 3 4.97829 5.93898 8.20583
82 3 6.53869 6.79027 10.2417
94 3 7.44161 5.01573 8.67966
34 2 5.37472 7.76525 9.95072
45 3 8.46981 8.54122 9.75357
27 1 8.9324 6.09032 8.98059
77 3 0.218207 7.32369 9.55667
135 5 12.342 7.2657 7.63693
80 3 11.3926 4.42422 10.4005
90 3 8.91485 5.52218 10.7744
99 4 1.00205 11.5642 7.33185
32 2 2.11507 0.903093 8.06443
96 3 1.27231 9.97419 9.22534
138 5 3.22434 10.0036 7.50893
60 3 3.68388 9.44459 9.53202
29 2 2.2312 9.82722 10.4038
7 1 3.73416 12.3872 9.76535
1 1 7.70818 0.117774 10.6
158 6 7.18078 9.0453 7.82682
78 3 7.86651 0.188443 8.77697
31 2 7.28517 11.8085 8.40983
98 3 7.7109 11.3673 9.93283
89 3 10.8072 0.244657 8.66313
14 1 12.5709 9.59237 9.5708
15 1 9.15878 9.8466 8.84127
88 3 10.6985 10.8554 9.69589
146 6 10.874 11.4589 7.66618
61 3 2.80233 4.64729 11.4167
38 2 1.2529 4.35938 11.2789
8 1 0.417523 1.89263 10.8186
36 2 2.7481 0.698092 12.6457
59 3 1.14989 0.845435 12.3509
71 3 3.16061 2.16956 13.2792
93 3 3.54139 0.333419 11.375
4 1 4.28504 3.60914 12.3508
26 1 4.63829 1.67983 10.4858
41 2 7.0469 2.26923 11.8173
55 3 7.81074 3.43379 12.7959
63 3 5.65379 2.45948 11.7941
73 3 7.60559 2.65228 10.3276
95 3 7.6357 0.910293 12.2997
21 1 12.8233 1.74177 12.9348
24 1 9.68916 2.63682 13.1325
47 3 9.87181 0.699836 10.9172
58 3 0.349648 3.22309 12.0126
40 2 10.6893 13.1222 11.9472
53 3 11.2294 1.2285 12.9368
62 3 4.05934 7.17586 10.3154
75 3 0.688528 5.84981 11.5466
51 3 5.41107 4.71987 13.0837
52 3 0.0778907 7.86574 13.0361
35 2 0.137838 9.25495 12.6568
91 3 2.06369 8.67236 11.3246
83 3 4.53972 7.03946 13.0844
37 2 5.74664 6.17806 13.3683
11 1 7.20564 4.4979 10.9247
46 3 7.36425 6.24776 13.3943
5 1 10.0879 8.23071 10.6854
65 3 10.4638 4.50231 12.6525
17 1 12.3745 6.57993 12.3247
33 2 10.5395 5.1152 11.3423
72 3 10.8218 6.71501 11.6619
3 1 4.12542 8.63419 11.9357
2 1 2.34238 10.9883 12.9792
50 3 3.85854 9.98036 12.8812
87 3 2.34677 11.2304 11.1569
64 3 0.496158 10.8806 12.7485
28 1 8.57517 7.33791 12.6452
85 3 5.81914 8.92477 10.8624
81 3 5.60666 0.127554 10.1594
6 1 5.88352 10.7107 10.4015
13 1 4.79623 11.6543 13.2019
16 1 7.75989 10.8193 12.319
97 3 6.14231 11.4296 12.1584
19 1 0.54178 12.4801 11.2961
70 3 12.0654 9.20668 11.5969
25 1 10.6186 10.382 12.1159
49 3 9.14537 9.19866 12.2388
66 3 11.907 12.3927 11.3546
84 3 9.99949 12.0018 12.6062
86 3 2.71831 12.6578 13.5324
ITEM: TIMESTEP
5700
ITEM: NUMBER OF ATOMS
178
ITEM: BOX BOUNDS pp pp pp
0.0000000000000000e+00 1.3168533823700001e+01
0.0000000000000000e+00 1.3168533823700001e+01
0.0000000000000000e+00 3.5381309593600001e+01
ITEM: ATOMS id type x y z
143 6 4.21547 0.940303 0.484648
149 6 1.68653 1.90355 1.04636
163 7 3.74391 2.73166 2.87368
101 4 3.24038 3.61386 0.481858
108 4 3.21794 0.103463 2.94881
126 5 1.58752 3.89552 3.75615
104 4 8.12944 2.91954 1.37723
147 6 5.94356 0.903249 3.11544
159 7 5.65682 2.94711 0.924538
166 7 7.07251 0.354905 0.884006
109 4 6.27405 3.75924 3.70901
171 7 8.68322 0.845048 2.95677
144 6 13.1612 3.95989 1.34194
127 5 10.6349 2.57128 1.70151
167 7 12.7878 0.587564 0.661472
151 6 12.997 1.87008 3.33121
105 4 2.07586 5.36542 1.43303
120 5 2.8002 7.87785 1.8636
122 5 4.46501 5.31066 2.12194
102 4 5.68455 7.37845 1.39587
123 5 7.62895 5.36001 1.52283
107 4 7.9784 8.43345 2.50528
124 5 0.0444466 6.69532 2.37921
145 6 10.5531 8.00567 2.00273
103 4 10.2408 5.20209 1.49027
106 4 2.41108 12.3116 0.605003
128 5 2.89331 10.5046 2.34847
141 6 0.477238 10.6552 0.826635
113 4 0.621374 12.2533 2.88915
142 6 5.28536 9.50065 2.50462
100 4 5.34799 11.6837 1.64056
129 5 7.16508 11.3223 3.79054
148 6 9.8359 0.386007 0.225604
125 5 11.6857 10.5655 2.84011
115 4 11.2773 11.4827 0.234312
121 5 8.98106 11.4955 1.87027
116 4 11.224 13.046 2.55617
117 4 2.62165 3.59897 6.00691
130 5 2.01861 1.05658 5.31665
131 5 4.76119 1.52537 5.37815
134 5 7.78464 1.99384 5.63671
177 7 12.7457 2.7028 5.97084
175 7 12.6864 13.0885 5.38119
178 7 10.473 1.62705 4.52859
172 7 8.93485 3.86094 3.73789
160 7 10.0853 3.33933 6.55913
136 5 2.92949 6.10234 6.56885
152 6 0.30478 5.55724 5.8746
153 6 1.1527 8.69952 6.22848
168 7 2.11309 6.66529 4.11689
165 7 4.53658 7.21762 3.90537
110 4 6.77221 6.28465 3.98146
112 4 4.45953 4.78043 4.97028
133 5 5.78196 6.77083 6.62987
156 6 7.84564 4.97631 6.05459
173 7 8.13678 7.93209 5.762
169 7 9.37396 6.32315 3.85771
132 5 11.584 4.45352 4.00074
137 5 10.2663 5.95891 6.15117
150 6 11.9727 7.76393 4.74126
161 7 0.850761 9.1428 3.42351
111 4 1.74213 11.2923 5.05728
164 7 3.37307 9.30301 4.90995
176 7 3.62721 12.5718 6.76263
114 4 4.51902 11.7575 4.44544
155 6 6.82676 12.8794 5.8611
162 7 5.67245 10.8971 6.98599
170 7 6.2816 9.16408 4.94304
174 7 8.50444 10.832 6.51968
139 6 9.83726 12.3381 5.03846
118 4 10.2887 9.02032 6.9114
154 6 9.61219 9.56513 4.19475
157 6 12.1154 10.4866 5.62103
68 3 2.42154 1.83444 9.03207
79 3 0.77795 13.0796 9.4882
140 6 13.0126 0.534608 7.81483
69 3 3.49741 3.74234 8.32789
39 2 4.78588 3.07232 7.69608
10 1 1.72496 3.94768 8.67746
92 3 0.500991 4.03357 9.94007
23 1 7.72714 2.89708 8.70251
76 3 5.82648 2.52956 8.78284
119 5 5.56603 0.577666 7.99865
43 3 5.34792 4.52646 10.5666
30 2 10.8905 0.825629 6.58595
48 3 9.55387 2.73676 8.67538
67 3 12.336 1.99433 9.32703
18 1 11.9881 4.20239 8.67001
9 1 9.03187 0.355928 7.57811
22 1 10.5602 1.83311 9.67674
12 1 1.73319 7.59225 9.92117
44 3 2.37518 5.93251 8.80428
54 3 2.51584 8.14581 7.88384
20 1 3.43949 5.38549 10.1421
56 3 4.20352 7.95799 7.16444
74 3 5.70213 8.03866 8.81972
42 2 5.78759 5.35484 9.47076
57 3 4.88501 5.63665 8.33879
82 3 6.37008 6.62171 10.4162
94 3 7.1902 4.88466 8.91642
34 2 5.30524 7.68824 10.3371
45 3 8.81768 8.0041 9.63539
27 1 9.14307 6.15567 8.69707
77 3 13.1417 7.91527 9.12438
135 5 12.1755 7.1987 7.56818
80 3 10.8953 5.73088 9.47439
90 3 8.88951 5.7289 10.9802
99 4 0.891004 11.6356 7.30617
32 2 2.18904 0.860187 7.80602
96 3 1.29615 10.2208 9.16132
138 5 3.24341 9.99272 7.36505
60 3 3.64366 9.76591 9.61896
29 2 2.4838 10.2462 10.2888
7 1 3.42601 12.485 9.68296
1 1 7.16415 0.0461717 10.8162
158 6 7.24014 9.18826 8.03651
78 3 7.87293 0.233082 8.94899
31 2 7.46715 11.7955 8.53608
98 3 7.8742 11.111 9.88304
89 3 10.6133 0.397437 8.33498
14 1 12.8872 9.66206 8.16774
15 1 9.21886 10.0653 9.68601
88 3 11.0015 10.4539 9.2732
146 6 11.107 11.5805 7.64469
61 3 2.64034 3.93653 11.2203
38 2 1.16926 4.46564 11.3771
8 1 0.875064 1.51202 10.4662
36 2 2.50383 1.05455 12.4483
59 3 0.90164 0.543934 12.0141
71 3 2.69615 2.19459 13.3
93 3 2.90918 1.13445 11.0159
4 1 4.03926 3.49948 12.908
26 1 4.63418 2.47241 10.4313
41 2 6.9015 2.40293 11.9823
55 3 7.67119 3.58744 12.6325
63 3 5.31533 2.51471 12.1721
73 3 7.40782 2.59561 10.4685
95 3 7.48812 1.08495 12.5904
21 1 12.6595 1.76733 12.5055
24 1 9.48872 2.91066 12.1087
47 3 9.59707 1.02082 10.7961
58 3 0.278739 3.64099 12.3267
40 2 10.3722 0.196552 11.9509
53 3 10.812 1.49214 12.7774
62 3 3.98383 7.19834 10.4306
75 3 0.801191 6.13351 11.3136
51 3 5.21496 4.84176 13.8191
52 3 0.194785 8.28538 13.1794
35 2 0.527697 9.40052 12.2897
91 3 1.86152 9.0224 11.35
83 3 4.65113 7.01048 13.0393
37 2 5.84494 6.25306 13.4049
11 1 7.50447 4.3884 10.898
46 3 7.37351 6.56571 13.1614
5 1 11.0621 8.36686 10.7524
65 3 10.8223 4.22736 11.3965
17 1 12.8013 6.54677 12.7408
33 2 10.4145 5.67381 10.9881
72 3 11.0516 6.87888 11.8162
3 1 3.89347 8.4642 12.0959
2 1 2.47249 11.6602 12.911
50 3 3.87205 10.2559 13.0667
87 3 2.66273 11.5205 11.1584
64 3 0.570627 11.017 12.3525
28 1 7.96604 7.31161 11.4756
85 3 5.67426 8.86467 11.2265
81 3 5.40875 0.0695674 10.2748
6 1 6.15044 10.6021 11.0182
13 1 5.13812 11.9046 13.278
16 1 8.42526 10.723 12.4534
97 3 6.86795 11.4204 12.2566
19 1 0.283234 12.2741 10.9169
70 3 12.4277 9.1618 11.3665
25 1 11.1981 10.8086 11.2927
49 3 9.80025 9.78608 11.4552
66 3 11.6936 12.6698 11.3459
84 3 9.44145 12.2711 12.4527
86 3 3.28986 13.0815 13.1103
ITEM: TIMESTEP
5800
ITEM: NUMBER OF ATOMS
178
ITEM: BOX BOUNDS pp pp pp
0.0000000000000000e+00 1.3168533823700001e+01
0.0000000000000000e+00 1.3168533823700001e+01
0.0000000000000000e+00 3.5381309593600001e+01
ITEM: ATOMS id type x y z
143 6 4.2893 0.955901 0.366092
149 6 1.54981 1.92634 1.10987
163 7 3.70652 2.59023 3.03328
101 4 3.07974 3.64682 0.48718
108 4 3.27744 0.11443 3.1096
126 5 1.56371 4.04555 3.46905
104 4 8.18906 2.59183 1.30864
147 6 5.97644 0.913517 3.09336
159 7 5.6584 3.0748 1.09344
166 7 7.25849 0.177337 0.487477
109 4 6.34378 3.50871 3.52579
171 7 8.56872 0.868838 3.08325
144 6 12.9239 4.22811 1.11901
127 5 10.8109 2.45191 1.92924
167 7 12.7719 0.301969 0.648511
151 6 13.1428 1.80738 3.32562
105 4 1.89137 5.63176 1.32739
120 5 2.8955 7.84334 1.86626
122 5 4.59924 5.24693 2.04466
102 4 6.19255 7.20827 1.17639
123 5 7.79385 5.38755 1.75906
107 4 7.82187 8.70766 2.58553
124 5 12.8736 6.49472 2.81712
145 6 10.5638 8.05782 1.83591
103 4 10.441 5.07477 1.66828
106 4 2.24872 12.5652 0.544054
128 5 2.89803 10.6077 2.3233
141 6 0.368588 10.4647 0.914439
113 4 0.7433 12.3783 2.82358
142 6 5.32296 9.32923 2.46615
100 4 5.21122 11.8923 1.62636
129 5 7.17814 11.3022 3.7949
148 6 9.69605 0.464055 0.262884
125 5 11.5388 10.3827 2.79007
115 4 11.3635 11.5523 0.260257
121 5 8.94665 11.3214 1.69734
116 4 11.1463 13.0804 2.54674
117 4 2.47563 3.88739 6.0397
130 5 1.76951 1.00394 5.27294
131 5 4.63164 1.85494 5.53635
134 5 7.59738 2.15671 5.59442
177 7 12.9 2.92847 6.10887
175 7 12.3595 12.9583 5.28032
178 7 10.6456 1.96661 4.65212
172 7 8.9592 3.84389 3.95211
160 7 10.0874 3.40476 6.62233
136 5 2.84968 6.48306 6.5816
152 6 0.232918 5.63348 5.83287
153 6 0.967053 8.30164 5.98795
168 7 2.0591 6.41529 4.25531
165 7 4.58743 7.08508 4.00718
110 4 6.79363 6.33058 3.92757
112 4 4.54795 4.65495 4.95653
133 5 5.55836 6.86381 6.39076
156 6 7.58941 4.77237 6.11632
173 7 8.31486 7.51737 5.93725
169 7 9.54189 6.49957 3.68998
132 5 11.7287 4.54372 3.9785
137 5 10.4026 5.759 6.32908
150 6 11.6656 7.87992 4.71596
161 7 0.757448 9.12065 3.37328
111 4 2.007 11.3034 4.73883
164 7 3.4239 9.1182 4.81077
176 7 3.63656 12.62 6.7935
114 4 4.66846 11.4688 4.37217
155 6 6.97191 13.0165 5.85672
162 7 5.85446 10.8582 6.78608
170 7 6.22321 9.10444 5.19867
174 7 8.49351 10.753 6.62983
139 6 9.8798 12.1513 4.94052
118 4 10.3746 8.77389 6.97603
154 6 9.60398 9.57337 4.43351
157 6 12.2636 10.3325 5.51943
68 3 2.04889 2.13232 8.92687
79 3 1.23546 13.0961 9.84059
140 6 13.0468 0.866885 7.81157
69 3 3.8021 4.04393 7.93031
39 2 4.9333 3.02206 7.9108
10 1 1.65354 4.42952 8.6988
92 3 0.249723 4.65945 9.73954
23 1 7.67053 2.51361 8.98756
76 3 5.62436 2.12506 9.18078
119 5 5.4879 0.242542 8.14328
43 3 4.74737 4.81333 10.2821
30 2 10.8957 1.16645 6.63917
48 3 9.2824 2.83163 8.66647
67 3 12.5689 1.69662 9.90784
18 1 11.9784 4.35323 8.80542
9 1 9.08353 0.587663 7.67142
22 1 10.7855 2.15406 9.68456
12 1 1.40071 7.19517 9.5886
44 3 2.55398 6.11662 8.76595
54 3 2.10795 8.40095 8.13871
20 1 3.0982 5.70345 10.6424
56 3 4.07242 7.97967 7.4225
74 3 5.47311 8.55684 8.81088
42 2 5.81772 5.73954 9.42676
57 3 4.92376 6.20073 8.18876
82 3 6.15649 6.78844 10.5618
94 3 7.06378 4.85643 9.26497
34 2 5.12904 7.89275 10.165
45 3 7.81958 8.26501 9.79744
27 1 8.86881 6.35179 8.77611
77 3 12.9021 7.8457 9.43344
135 5 12.1639 7.27381 7.64902
80 3 10.9891 6.60877 9.56855
90 3 9.14761 5.88584 10.8875
99 4 1.12535 11.4715 6.98467
32 2 2.27605 1.57669 7.60773
96 3 1.25547 10.6184 9.14355
138 5 3.45902 9.9622 7.29115
60 3 3.48825 9.67967 9.52876
29 2 2.28959 10.4197 10.1311
7 1 2.92175 12.9884 10.2111
1 1 6.694 0.134448 11.1869
158 6 7.41731 8.89922 7.93977
78 3 7.73681 0.103032 9.24485
31 2 7.33676 11.8336 8.63936
98 3 7.45702 10.9125 9.9138
89 3 10.753 0.442582 8.5509
14 1 13.0955 9.52623 8.51401
15 1 9.39842 10.4625 9.50952
88 3 11.1057 11.0251 9.54672
146 6 11.2222 11.9132 7.446
61 3 2.27507 3.84701 10.6121
38 2 0.956246 4.7634 11.123
8 1 1.32179 1.72983 10.5037
36 2 2.84965 1.47669 12.7823
59 3 1.05678 1.27046 12.3802
71 3 3.2446 2.57621 13.6865
93 3 3.23697 1.48564 11.1499
4 1 4.72791 3.41132 14.0055
26 1 4.26272 2.8904 10.6919
41 2 6.76778 2.4644 12.368
55 3 7.9904 3.16326 12.9881
63 3 5.47487 3.27775 12.3298
73 3 7.21869 2.81894 10.9816
95 3 6.55435 0.993678 12.7255
21 1 12.9505 2.56618 12.988
24 1 9.34532 2.94292 11.6533
47 3 9.73584 1.29642 10.9066
58 3 0.296722 4.12762 12.2254
40 2 10.645 0.409845 11.984
53 3 11.2032 1.60347 12.8533
62 3 3.73516 7.35078 10.3835
75 3 1.37146 6.23357 11.2632
51 3 5.024 5.10946 14.2596
52 3 0.669787 8.4871 13.0125
35 2 0.632163 9.70059 12.2551
91 3 1.8942 9.41244 11.1395
83 3 4.16856 7.19668 13.3316
37 2 5.30915 6.40426 13.4469
11 1 7.64021 4.80954 11.6023
46 3 6.75266 6.50323 13.0275
5 1 11.3929 8.48864 10.3365
65 3 10.7372 4.11959 10.4038
17 1 12.8366 7.04228 12.3708
33 2 10.6969 5.6493 10.7009
72 3 11.7601 5.75183 11.7254
3 1 3.7333 8.85393 11.9538
2 1 2.79607 11.4844 13.0942
50 3 4.0464 10.4954 13.2727
87 3 2.88519 11.4306 11.1491
64 3 0.911962 11.1051 12.9317
28 1 7.35738 7.99402 11.5438
85 3 5.36502 9.08361 11.107
81 3 5.25334 12.526 10.2816
6 1 5.15744 10.6754 9.79149
13 1 5.09693 11.9123 12.6002
16 1 8.21918 10.7664 11.5866
97 3 6.55142 11.3897 12.234
19 1 0.433122 12.5085 11.6576
70 3 12.5172 9.70947 11.3965
25 1 11.1079 11.0913 11.4658
49 3 9.50035 9.6592 11.1726
66 3 11.9631 12.8853 11.3658
84 3 9.78173 12.2862 12.2587
86 3 3.31792 0.124153 13.113
ITEM: TIMESTEP
5900
ITEM: NUMBER OF ATOMS
178
ITEM: BOX BOUNDS pp pp pp
0.0000000000000000e+00 1.3168533823700001e+01
0.0000000000000000e+00 1.3168533823700001e+01
0.0000000000000000e+00 3.5381309593600001e+01
ITEM: ATOMS id type x y z
143 6 4.27361 0.854103 0.612633
149 6 1.63516 1.93985 1.05005
163 7 3.86243 2.58054 3.00155
101 4 2.93919 3.86284 0.740042
108 4 3.03356 13.1626 3.11733
126 5 1.47968 4.08589 3.14268
104 4 8.43395 2.86427 1.24185
147 6 5.97882 0.816169 2.97045
159 7 5.79672 2.80016 0.98924
166 7 7.04378 0.35997 0.730786
109 4 6.66963 3.47197 3.38591
171 7 8.6031 0.849953 3.17663
144 6 12.8502 4.07216 0.960751
127 5 10.8864 2.40239 1.89124
167 7 12.8488 0.215376 0.83059
151 6 13.0848 1.69327 3.42157
105 4 1.59366 5.88038 1.1282
120 5 2.9853 7.96847 1.80174
122 5 4.31209 5.07213 2.33092
102 4 5.84372 7.0017 1.55013
123 5 7.96096 5.31053 1.37553
107 4 7.89507 8.30232 2.72264
124 5 12.9844 6.57952 2.60352
145 6 10.6064 8.32285 1.87492
103 4 10.5055 4.94114 1.36886
106 4 2.06323 12.5521 0.660839
128 5 2.80965 10.6462 2.09038
141 6 0.419371 10.4956 0.756485
113 4 0.318265 11.9647 3.10125
142 6 5.43435 9.24842 2.47974
100 4 5.36956 11.7024 1.65685
129 5 7.2559 11.1185 3.78458
148 6 9.78344 0.505165 0.223645
125 5 11.463 10.4026 3.00778
115 4 11.1473 11.4464 0.475033
121 5 8.69224 11.1901 1.77433
116 4 11.0724 13.1226 2.4519
117 4 2.1956 3.72821 5.39157
130 5 1.77377 1.05898 5.4588
131 5 4.80453 1.52691 5.29895
134 5 7.59543 2.4185 5.72396
177 7 12.9564 2.72951 6.02269
175 7 12.5566 13.1598 5.36854
178 7 10.4077 1.78774 4.68521
172 7 9.19257 4.09085 3.96961
160 7 9.7524 3.29456 6.76589
136 5 2.9297 6.37288 6.59346
152 6 0.181047 5.68271 5.93242
153 6 0.854373 8.43246 5.92501
168 7 2.21822 6.45387 4.15206
165 7 4.70265 7.07027 4.06296
110 4 6.88023 6.307 3.86831
112 4 4.7649 4.5907 5.06598
133 5 5.5685 6.91459 6.58562
156 6 7.36072 4.85232 6.08378
173 7 8.60783 7.28744 6.12381
169 7 9.74889 6.50633 3.52725
132 5 11.8079 4.19496 3.96606
137 5 10.4709 5.49037 6.39762
150 6 11.5144 7.80888 4.85631
161 7 0.798695 9.18956 3.24767
111 4 1.745 11.4122 4.98826
164 7 3.21881 9.03381 4.47406
176 7 3.80387 12.7621 6.3651
114 4 4.56944 11.4954 4.38585
155 6 7.06151 13.0834 5.74021
162 7 5.8005 11.159 6.84331
170 7 6.48352 8.97481 5.14979
174 7 8.44771 10.6822 6.58786
139 6 9.90753 12.1894 4.90678
118 4 10.3028 8.9738 7.04948
154 6 9.46635 9.44258 4.57112
157 6 12.2524 10.356 5.53949
68 3 2.81864 2.09696 8.72204
79 3 1.11683 0.721449 9.50469
140 6 0.0603243 0.955912 7.78414
69 3 3.98261 3.95206 7.28223
39 2 4.37476 2.58429 7.87453
10 1 2.52846 4.22017 8.54842
92 3 13.142 5.24253 9.94925
23 1 7.22678 3.22932 9.21016
76 3 5.44321 2.30642 9.12469
119 5 5.6006 0.379506 8.18842
43 3 4.57272 4.63821 10.232
30 2 11.045 0.94278 6.7713
48 3 8.7172 2.11908 8.3345
67 3 12.7882 2.47551 9.43308
18 1 12.6288 4.15036 8.60254
9 1 9.01978 0.380324 7.60706
22 1 10.3631 2.39378 9.11682
12 1 1.71515 7.75644 9.56948
44 3 2.24353 6.2904 8.96699
54 3 1.96985 8.58179 7.89189
20 1 3.47889 6.35638 11.0862
56 3 4.02069 8.17557 7.40322
74 3 5.59826 8.70056 8.81146
42 2 5.31498 5.58477 9.43534
57 3 4.43498 6.17217 8.35881
82 3 5.6439 6.6973 10.6281
94 3 6.87548 5.11542 9.11357
34 2 5.06347 8.30827 10.116
45 3 7.78971 8.02803 9.81246
27 1 8.74294 5.92521 9.15462
77 3 13.0669 8.1995 9.62899
135 5 12.3809 7.37464 7.80128
80 3 10.3925 6.68315 10.0103
90 3 8.66296 5.79898 11.575
99 4 0.842386 12.0822 7.23624
32 2 2.29146 0.646053 8.01702
96 3 1.17163 11.204 9.31893
138 5 3.31976 10.2571 7.03093
60 3 3.5616 10.3934 9.2564
29 2 2.34576 10.6919 10.1946
7 1 3.10355 0.116041 10.0748
1 1 7.50204 12.9859 11.1311
158 6 7.47927 8.70429 7.81857
78 3 7.91084 0.00629156 9.09548
31 2 7.50732 11.7236 8.58638
98 3 7.55458 10.9227 9.95183
89 3 10.7515 0.522177 8.674
14 1 12.9844 9.76684 8.26776
15 1 9.35518 10.0643 9.67002
88 3 10.8357 11.1432 9.47474
146 6 11.1322 11.5832 7.44844
61 3 2.29792 3.89698 10.2958
38 2 0.954873 4.99838 11.0266
8 1 1.55877 2.35688 10.6963
36 2 2.88641 1.3076 12.8112
59 3 1.34791 1.09755 12.2466
71 3 3.13403 2.68364 13.402
93 3 3.7225 1.29048 11.4749
4 1 4.44387 3.94456 13.58
26 1 4.8605 2.85955 10.8694
41 2 7.21463 2.84102 12.1301
55 3 8.18482 3.15542 13.2978
63 3 5.99417 3.90874 12.3727
73 3 7.98526 3.136 10.8933
95 3 6.50302 1.57171 11.837
21 1 13.024 2.21032 12.3199
24 1 9.9446 2.85555 11.9645
47 3 10.0701 1.2602 10.7776
58 3 0.345691 4.04214 12.0277
40 2 10.7933 0.514828 11.9309
53 3 11.0753 1.67634 12.9949
62 3 3.63493 8.02222 10.3457
75 3 1.45457 6.38866 11.6208
51 3 4.9366 5.41643 14.7914
52 3 0.248095 8.42178 13.2966
35 2 0.0635752 9.72431 12.6102
91 3 1.98468 9.58856 11.1425
83 3 3.89625 7.17419 13.2238
37 2 5.20766 6.57452 13.7179
11 1 7.54359 4.98119 12.5527
46 3 6.54976 6.72885 13.1351
5 1 11.5122 7.75495 11.0069
65 3 10.6259 4.26422 11.1754
17 1 12.8202 6.92994 12.8873
33 2 10.2164 5.68547 11.2087
72 3 11.3055 6.49255 12.2014
3 1 3.70765 8.97161 12.4575
2 1 2.46543 11.6632 13.4044
50 3 3.74857 10.5688 13.3479
87 3 2.40461 12.0101 11.1574
64 3 0.774841 11.0293 13.0143
28 1 7.28518 7.71159 11.5151
85 3 5.85193 9.19972 11.2206
81 3 5.64186 12.707 10.1356
6 1 5.66461 10.9161 10.1256
13 1 5.25199 12.1934 12.8312
16 1 8.41749 10.9349 12.1635
97 3 6.76209 11.6623 12.2172
19 1 0.673138 12.569 11.4967
70 3 12.0832 9.62053 11.5918
25 1 11.2158 11.2274 11.6104
49 3 9.44184 9.89653 11.4311
66 3 12.1354 13.1201 11.5822
84 3 9.81679 12.5382 12.516
86 3 3.28337 13.1574 13.604
ITEM: TIMESTEP
6000
ITEM: NUMBER OF ATOMS
178
ITEM: BOX BOUNDS pp pp pp
0.0000000000000000e+00 1.3168533823700001e+01
0.0000000000000000e+00 1.3168533823700001e+01
0.0000000000000000e+00 3.5381309593600001e+01
ITEM: ATOMS id type x y z
143 6 4.07044 0.58684 0.738474
149 6 1.68765 1.87951 0.872229
163 7 3.84418 2.45243 2.7702
101 4 2.80343 4.08757 0.525224
108 4 3.05268 0.0962235 3.44032
126 5 1.4626 4.09429 3.03592
151 6 0.0572515 1.64378 3.30087
104 4 8.38939 3.06802 1.11938
147 6 5.78729 0.54774 3.25158
159 7 5.78656 2.85747 0.86345
166 7 7.27424 0.414678 0.744522
109 4 6.43527 3.55169 3.22468
171 7 8.47219 1.08681 2.94903
144 6 13.0548 3.83755 0.900913
127 5 10.8549 2.39331 2.01927
167 7 12.6388 0.265396 0.935087
148 6 9.69824 0.356846 0.262719
105 4 1.63143 5.97988 0.988147
120 5 2.96891 7.61548 1.83079
122 5 4.11957 5.1409 2.6427
102 4 5.48714 6.9307 1.3989
123 5 7.80496 5.49373 1.58225
107 4 7.92097 8.39332 2.07675
124 5 12.8248 6.6516 2.61901
145 6 10.6704 8.37872 1.96417
103 4 10.5361 5.12641 1.37339
169 7 9.84732 6.30808 3.45421
106 4 1.95572 12.3888 0.64151
128 5 2.89663 10.6303 2.12785
141 6 0.292217 10.5417 0.696523
113 4 0.579975 12.0978 2.97281
161 7 0.627414 9.03798 3.1278
142 6 5.48332 9.15479 2.50176
100 4 5.45997 11.68 1.64296
121 5 8.7381 11.5789 1.83831
125 5 11.5483 10.5895 2.7542
115 4 11.0329 11.3256 0.386392
116 4 11.0518 13.0928 2.78108
117 4 2.5607 3.85455 5.35505
130 5 1.82371 1.10621 5.51736
131 5 4.8092 2.19923 5.48742
134 5 7.43187 2.26745 5.4318
177 7 12.438 2.93307 5.89235
178 7 10.4191 1.62466 4.87608
172 7 9.08489 3.81469 3.87351
160 7 9.63594 3.20187 6.76132
136 5 2.9019 6.62109 6.44006
152 6 0.426819 5.61906 5.5895
153 6 1.2088 8.54103 5.92589
168 7 2.20032 6.55905 3.9534
165 7 4.78583 7.16285 4.40756
110 4 7.00281 6.16273 3.90324
112 4 4.6933 4.85608 5.29164
133 5 5.91792 6.92461 6.79085
156 6 7.72099 4.89906 6.23561
173 7 8.68289 7.38302 5.94724
132 5 11.819 4.56904 3.71944
137 5 10.6538 5.40973 6.17063
150 6 11.8131 7.77823 5.03025
111 4 1.85382 11.2486 5.08537
164 7 3.19645 9.04753 4.34673
176 7 3.86345 12.746 6.38726
129 5 7.26892 11.1882 3.99115
114 4 4.64772 11.1742 4.42034
155 6 7.26042 12.9827 5.7239
162 7 5.83252 10.9187 6.85549
170 7 6.47629 8.9239 5.14873
174 7 8.4151 10.7296 6.67049
175 7 12.4567 13.044 5.6223
139 6 9.8516 12.0151 5.15856
154 6 9.55192 9.38965 4.46289
157 6 12.2002 10.4854 5.51626
68 3 3.78805 2.36105 8.75861
79 3 1.74812 0.527431 9.33735
32 2 2.98862 1.01221 8.02952
61 3 1.52561 4.02265 9.85418
8 1 1.95336 2.01749 10.5995
39 2 5.08447 3.07568 7.97609
23 1 8.04192 3.30058 9.06489
76 3 6.1691 2.61178 8.82207
119 5 5.89149 0.463715 7.72077
78 3 7.8736 0.102674 9.14319
26 1 4.96384 2.80954 10.5653
140 6 13.0426 1.19622 7.91204
30 2 10.8579 0.670256 7.14158
48 3 9.69884 2.41098 8.76103
67 3 12.7629 2.05105 9.83974
18 1 12.2746 3.70396 8.85627
9 1 8.95855 0.648865 7.85463
22 1 10.9112 1.63287 10.1384
89 3 10.4716 0.0628482 8.97811
10 1 2.77832 4.59155 8.43841
12 1 1.49415 7.6802 9.88104
44 3 2.26416 6.03873 8.65785
54 3 1.90948 8.58278 7.96775
56 3 4.08246 8.09765 7.32344
62 3 3.25272 7.78515 10.2299
69 3 4.52749 4.44157 7.59256
43 3 4.5872 4.68389 9.97225
74 3 5.41882 8.49451 8.70383
42 2 5.66159 5.6437 9.36125
57 3 4.78141 6.44639 8.47185
94 3 7.02166 5.34459 8.9134
34 2 4.75891 7.87271 10.1705
45 3 7.93108 8.04623 9.88787
118 4 10.3558 8.72911 7.27551
92 3 12.5852 5.15876 9.71651
27 1 9.24299 6.55698 9.06359
77 3 12.8235 8.25632 9.51029
135 5 12.2325 7.0744 7.67863
80 3 10.2865 6.72749 10.3746
5 1 11.4647 8.56872 10.5646
99 4 1.26522 11.872 7.19747
96 3 0.984485 10.9122 9.6772
138 5 3.35237 10.1586 7.20066
60 3 3.50497 10.7067 9.92986
29 2 2.08592 10.6352 10.557
7 1 3.3874 12.591 9.81898
158 6 7.27234 8.96275 7.87282
31 2 7.71548 11.6752 8.83997
98 3 7.14751 11.0609 10.0882
81 3 5.32627 12.8441 9.73784
6 1 5.46645 10.5232 9.83349
14 1 13.031 9.95623 8.36339
15 1 8.79786 9.54114 10.3564
88 3 10.76 10.1753 9.88499
146 6 10.7636 11.5438 7.74854
36 2 2.9093 1.54401 12.5093
59 3 1.25468 1.51741 12.2206
71 3 3.0217 2.98755 13.1733
93 3 3.59513 1.74519 11.2054
86 3 3.34912 0.273392 13.2756
1 1 6.77157 0.0841651 10.8205
4 1 4.67039 3.6764 13.5305
41 2 7.00589 3.00951 12.0093
55 3 8.0704 3.51793 13.1869
63 3 5.70087 3.77182 11.8848
73 3 7.74083 3.84114 10.842
95 3 6.92119 1.56938 11.4093
21 1 12.8416 2.28193 12.9794
24 1 9.52406 3.14216 12.1699
47 3 9.57165 1.38045 11.3087
58 3 13.1076 4.03516 11.977
40 2 10.6095 0.486273 12.108
53 3 11.2546 1.34891 13.1633
66 3 11.9472 0.0240982 11.3922
20 1 3.01076 5.89068 10.8606
38 2 0.39733 4.82695 10.8423
75 3 1.04207 6.05993 11.5474
52 3 0.722731 8.54516 13.3513
83 3 4.16546 7.28498 12.4466
3 1 3.42168 8.7423 12.2012
82 3 5.67547 6.61512 10.6293
51 3 4.88891 5.35578 14.06
37 2 5.13722 6.60412 13.2767
11 1 7.53881 5.61152 13.5727
46 3 6.47348 7.28145 13.2757
28 1 7.00205 8.00391 11.6098
90 3 9.01837 6.20316 12.5002
65 3 10.5979 4.39719 11.4823
17 1 12.9989 7.27576 12.4714
33 2 10.3216 6.00238 11.7696
72 3 11.3213 7.04161 12.4629
35 2 0.497249 9.83243 12.5939
91 3 1.74671 9.49603 11.522
2 1 2.32833 11.7782 13.3135
50 3 3.89031 10.7811 12.9326
87 3 2.03179 12.2007 11.3057
64 3 0.746278 11.033 13.4994
19 1 0.573223 13.0497 10.8649
85 3 5.45142 8.86189 10.8797
13 1 5.12918 12.3233 12.8754
16 1 8.35421 11.4238 12.4876
97 3 6.91456 12.3496 12.6451
49 3 8.72186 9.64115 12.2341
70 3 12.3264 9.59205 11.8321
25 1 11.4893 11.4666 11.1032
84 3 9.93365 12.2621 12.1593
ITEM: TIMESTEP
6100
ITEM: NUMBER OF ATOMS
178
ITEM: BOX BOUNDS pp pp pp
0.0000000000000000e+00 1.3168533823700001e+01
0.0000000000000000e+00 1.3168533823700001e+01
0.0000000000000000e+00 3.5381309593600001e+01
ITEM: ATOMS id type x y z
143 6 4.385 0.303004 0.666422
149 6 1.69322 1.77178 0.856661
163 7 3.53967 2.36229 2.69496
101 4 2.95476 3.90691 0.537784
108 4 3.19651 0.0367623 3.3738
126 5 1.43814 4.05335 3.05129
151 6 0.106622 1.7868 3.44739
104 4 8.42448 2.9368 0.83749
147 6 5.86366 0.824341 3.35975
159 7 5.45127 2.67201 1.05394
166 7 6.95542 0.462016 0.68353
109 4 6.50135 3.59626 3.37125
171 7 8.34927 1.18411 3.01584
144 6 12.8086 3.82339 0.836515
127 5 10.6703 2.42655 1.96635
167 7 12.522 0.231344 0.821698
148 6 9.70919 0.595821 0.42824
105 4 1.61165 5.76381 1.14489
120 5 3.11166 7.95906 1.63981
122 5 4.36302 5.03525 2.6691
102 4 5.93312 6.74816 1.5085
123 5 7.86193 5.47936 1.57398
107 4 8.05513 8.53223 2.51731
124 5 12.882 6.35779 2.4447
145 6 10.8736 8.17382 2.0024
103 4 10.3637 4.91127 1.26481
169 7 9.58312 6.54056 3.69957
106 4 1.72254 12.5953 0.613461
128 5 2.87031 10.8101 2.15161
141 6 0.207562 10.5117 0.893731
113 4 0.517555 12.317 3.052
161 7 0.680769 9.17966 3.24055
142 6 5.4367 9.1599 2.40461
100 4 5.59472 11.5552 1.86231
121 5 8.82287 11.4292 1.79018
125 5 11.5083 10.7588 2.83388
115 4 11.0808 11.414 0.299424
116 4 11.0445 0.00126286 2.74471
117 4 2.51454 3.92487 5.33887
130 5 1.7808 1.10838 5.48074
131 5 4.3858 1.95348 5.25752
134 5 7.41445 2.28274 5.61817
177 7 12.5233 3.01557 6.03849
178 7 10.3624 1.75764 4.8032
172 7 8.99971 3.96678 3.71838
160 7 9.82858 3.01467 6.93339
136 5 3.00363 6.27444 6.41946
152 6 0.262625 5.56877 5.57113
153 6 1.04506 8.52373 6.07887
168 7 2.04563 6.64729 4.08032
165 7 4.50388 7.16257 4.19184
110 4 7.11271 6.39108 3.98407
112 4 5.42016 4.81856 5.42563
133 5 6.2496 6.84805 6.78513
156 6 7.94287 4.83393 5.96178
173 7 8.7251 7.5348 6.16986
132 5 11.8295 4.1996 3.54965
137 5 10.6873 5.38567 5.9649
150 6 11.8419 7.81301 4.77578
111 4 1.91992 11.3645 5.1484
164 7 3.20426 9.23068 4.4448
176 7 4.06095 12.8558 6.39182
129 5 7.26554 11.0036 3.84549
114 4 4.76667 11.2379 4.34797
155 6 7.32876 12.8605 5.83262
162 7 6.0146 10.9205 6.66516
170 7 6.59884 8.91225 5.1459
174 7 8.68668 10.396 6.73636
175 7 12.4462 12.875 5.58437
139 6 9.96221 12.1398 5.06765
154 6 9.70802 9.54024 4.31803
157 6 12.1552 10.4134 5.61946
68 3 3.13875 2.68861 8.3708
79 3 1.88857 0.68974 9.03349
32 2 2.77057 1.3511 7.9227
61 3 1.70438 4.01606 10.0157
8 1 1.7218 2.18222 10.3116
39 2 5.69388 3.41183 7.66367
23 1 7.87306 3.41315 9.30149
76 3 6.00457 2.79067 8.95418
119 5 5.69753 0.9077 8.00255
78 3 7.41612 0.277933 9.24743
26 1 5.25078 2.45328 10.4065
140 6 12.9577 1.13077 7.68485
30 2 10.7474 0.671408 6.80547
48 3 9.7918 2.94113 9.17808
67 3 12.4608 1.63929 9.45095
18 1 10.8983 4.55966 8.87206
9 1 9.04061 0.201693 8.04516
22 1 10.6992 0.912535 9.72951
89 3 9.60993 12.4901 9.43237
10 1 2.4294 4.13232 7.85352
12 1 1.88799 7.89399 10.1418
44 3 2.21513 5.87625 8.29416
54 3 2.16743 8.58446 7.96157
56 3 4.47153 8.00534 7.2207
62 3 3.50134 7.38128 10.361
69 3 4.62281 4.39456 7.29191
43 3 4.49512 4.88444 9.79931
74 3 5.29988 8.99479 9.17133
42 2 5.31914 6.09072 9.51561
57 3 4.73494 6.43365 8.20965
94 3 6.77395 5.51052 8.95021
34 2 4.98826 8.03166 10.5324
45 3 7.48434 8.40504 9.98301
118 4 10.5735 8.74555 6.97953
92 3 12.5473 5.07943 9.27087
27 1 8.90128 6.76935 8.82095
77 3 12.7918 8.10945 9.27277
135 5 12.283 6.70619 7.59917
80 3 9.7661 6.76083 10.3957
5 1 11.9301 8.58912 10.6869
99 4 1.15254 11.9214 7.34989
96 3 0.585738 10.5664 9.12243
138 5 3.50322 10.1544 6.96645
60 3 3.16985 10.7158 9.29587
29 2 1.84374 10.466 9.98176
7 1 3.37068 12.6768 9.50453
158 6 7.32079 8.95179 8.03698
31 2 7.41537 11.7439 8.47275
98 3 7.12634 11.0498 9.76701
81 3 4.77358 0.131985 10.0961
6 1 5.47878 10.6579 9.87773
14 1 12.6799 9.43537 8.11117
15 1 8.8596 9.76421 10.4186
88 3 10.9509 10.1798 10.1149
146 6 10.6646 11.3515 7.88088
36 2 2.61776 1.6658 12.6392
59 3 1.09304 1.29069 11.9665
71 3 2.4347 3.00236 13.3421
93 3 3.26443 1.95438 11.2679
86 3 3.24412 0.345909 13.2112
1 1 7.32476 0.0220831 11.0778
4 1 3.88626 3.87109 13.6325
41 2 6.90307 3.35367 12.0348
55 3 7.51134 4.00995 13.3595
63 3 5.34252 3.75075 11.8445
73 3 7.62142 4.15157 10.8313
95 3 7.02379 2.0651 11.3703
21 1 12.7413 2.42995 12.2677
24 1 9.73735 3.109 11.012
47 3 10.1115 1.40595 11.3774
58 3 13.1584 4.14368 11.6041
40 2 11.0027 0.203749 12.237
53 3 11.9296 0.56011 13.3024
66 3 11.9247 12.9404 11.0949
20 1 2.79778 5.48037 10.0814
38 2 0.46598 4.90845 10.4286
75 3 1.29551 6.35484 10.8656
52 3 0.867151 8.34809 13.4178
83 3 3.65291 7.30583 13.4458
3 1 3.4693 8.93312 12.4554
82 3 5.82071 6.74962 10.7998
51 3 5.1227 5.28218 14.522
37 2 4.97265 6.5247 13.6706
11 1 7.70749 5.74871 12.8493
46 3 6.20149 7.12245 13.0212
28 1 7.60481 8.28201 11.8783
90 3 9.37168 6.86394 12.6027
65 3 10.6007 4.69954 11.4902
17 1 0.639784 6.76257 12.5504
33 2 10.4663 6.33446 11.6348
72 3 11.7938 6.93703 11.6188
35 2 0.424817 9.75892 13.1487
91 3 1.74268 9.27319 10.9673
2 1 2.12268 12.1102 12.6872
50 3 3.7963 10.9324 12.8314
87 3 1.6839 12.0273 10.6399
64 3 1.09855 10.9347 13.7871
19 1 0.222641 13.0935 10.1656
85 3 5.23171 9.0698 11.5104
13 1 4.92404 12.525 12.6778
16 1 8.40727 11.2935 12.8141
97 3 6.83966 12.2333 12.5126
49 3 8.24227 9.86253 12.1454
70 3 12.379 9.85456 12.2198
25 1 11.5262 11.1863 11.3725
84 3 10.0766 12.1753 12.7842
ITEM: TIMESTEP
6200
ITEM: NUMBER OF ATOMS
178
ITEM: BOX BOUNDS pp pp pp
0.0000000000000000e+00 1.3168533823700001e+01
0.0000000000000000e+00 1.3168533823700001e+01
0.0000000000000000e+00 3.5381309593600001e+01
ITEM: ATOMS id type x y z
143 6 4.05564 0.152253 0.646203
149 6 1.61993 1.86346 0.884184
163 7 3.37011 2.30245 2.93153
101 4 2.84473 3.74074 0.510205
108 4 3.27124 13.0245 3.23941
126 5 1.19471 4.1719 3.0798
151 6 12.9859 1.78486 3.33929
104 4 7.98101 2.96284 1.18648
147 6 5.81134 0.685628 3.2365
159 7 5.27458 2.60406 1.13087
166 7 7.00526 0.348803 0.778419
109 4 6.51257 3.5413 3.22948
171 7 8.57735 0.95035 3.13052
144 6 12.9334 3.88824 0.880607
127 5 10.7523 2.58894 1.78745
167 7 12.6616 0.35726 0.848704
148 6 9.4528 0.549389 0.103857
105 4 1.98338 5.75911 0.972128
120 5 2.79774 7.84242 1.92677
122 5 4.01908 4.88898 2.71661
102 4 5.7672 6.96736 1.46388
123 5 8.03301 5.4744 1.49469
107 4 8.01168 8.58789 2.38365
124 5 12.9493 6.48828 2.29809
145 6 11.1582 8.3705 1.87674
103 4 10.5191 5.15876 1.31668
169 7 9.77137 6.45939 3.62602
106 4 1.92032 12.4066 0.569506
128 5 3.02643 10.4503 2.04613
141 6 0.258306 10.422 0.959099
113 4 0.51442 12.1188 3.07741
161 7 0.72666 9.35772 3.51611
142 6 5.43855 9.19358 2.62759
100 4 5.74718 11.4963 1.85589
121 5 8.67803 11.473 1.69639
125 5 11.5031 10.7033 2.96715
115 4 11.0548 11.6519 0.375902
116 4 10.9787 13.1346 2.57036
117 4 2.64122 4.0714 5.17088
130 5 1.75885 1.03595 5.35321
131 5 4.85236 2.1709 5.35597
134 5 7.65108 2.47993 5.78244
177 7 12.8927 2.8231 5.97819
178 7 10.4225 2.05082 4.78956
172 7 9.04463 3.94631 3.69413
160 7 9.99734 2.73501 7.34918
136 5 3.10769 6.41034 6.24746
152 6 0.299935 5.53975 5.60885
153 6 1.05307 8.3647 6.18289
168 7 1.76153 6.78199 4.0315
165 7 4.5205 7.08123 4.19111
110 4 7.09102 6.27889 3.88337
112 4 5.23488 4.616 5.48903
133 5 6.01567 6.72512 6.59215
156 6 8.14127 4.94536 5.92942
173 7 8.8131 7.46646 6.23705
132 5 11.7049 4.56428 3.76947
137 5 10.6328 4.95396 6.23981
150 6 11.9198 7.77755 4.68732
111 4 1.85172 11.366 5.00249
164 7 3.25961 9.20119 4.43982
176 7 4.00432 12.7487 6.33377
129 5 7.4056 11.1521 3.82043
114 4 4.76601 11.3355 4.36118
155 6 7.19522 13.1517 5.82353
162 7 6.08952 11.0315 6.86348
170 7 6.33394 8.94572 5.13865
174 7 8.67804 10.494 6.66652
175 7 12.4681 0.0202504 5.24826
139 6 9.82209 12.2125 4.99659
154 6 9.6762 9.31979 4.41539
157 6 12.1642 10.4802 5.5782
68 3 2.84597 2.29154 8.2529
79 3 2.12965 0.351748 9.03061
32 2 2.43406 0.881814 7.58571
61 3 1.48636 3.86637 9.77405
8 1 1.66142 2.16894 9.90295
39 2 4.06082 3.18716 7.9627
23 1 7.21721 3.857 8.95984
76 3 5.10856 2.60828 8.75201
119 5 5.76775 0.71206 7.76478
78 3 7.64426 0.0626083 9.19422
26 1 5.1452 2.63323 10.5376
140 6 12.6435 0.917701 7.72625
30 2 10.6195 0.580658 6.5244
48 3 9.33787 3.57909 9.13091
67 3 12.8777 1.52825 9.68511
18 1 10.897 4.32949 9.3452
9 1 9.09328 0.111539 7.56067
22 1 11.2053 1.04205 10.1163
89 3 10.2836 12.9913 9.39653
10 1 1.05898 4.4515 8.12249
12 1 2.05698 8.59048 9.81065
44 3 2.04742 5.71811 8.07544
54 3 2.66004 8.38571 7.63645
56 3 4.37323 8.02227 7.1437
62 3 3.39726 7.49242 9.98397
69 3 4.02921 4.62234 7.53037
43 3 4.30783 4.90039 10.3179
74 3 5.2892 8.62804 8.87634
42 2 5.26822 5.80329 9.55974
57 3 4.453 6.53952 8.25379
94 3 6.61807 5.78637 8.73264
34 2 4.92584 7.88326 10.0703
45 3 8.05214 8.32872 9.8817
118 4 10.899 8.52416 7.12404
92 3 12.3979 5.26418 9.67972
27 1 8.59306 6.77921 8.76047
77 3 0.0849841 8.24603 9.46387
135 5 12.3636 6.90458 7.73682
80 3 10.3419 6.34989 9.55024
5 1 11.7568 8.64197 10.5279
99 4 0.817497 11.9356 7.18656
96 3 0.964379 10.8118 9.21523
138 5 3.68054 10.1788 7.05559
60 3 3.30033 10.5344 9.50058
29 2 2.11519 10.7347 10.4657
7 1 3.56026 12.4489 9.49796
158 6 7.1101 8.98698 8.00922
31 2 7.59496 11.6867 8.70819
98 3 7.40597 11.1807 10.2479
81 3 5.3044 0.577507 10.0368
6 1 5.27861 10.5332 10.8087
14 1 12.9969 9.84215 8.38703
15 1 8.92178 9.82812 9.82373
88 3 10.6358 10.1226 9.67033
146 6 11.064 11.5393 7.69364
36 2 2.76916 1.78855 12.2353
59 3 1.25003 1.51588 11.7019
71 3 2.3805 2.94339 13.3264
93 3 3.54466 2.2321 11.0803
86 3 3.13976 0.561921 13.0705
1 1 6.93259 0.189077 10.8345
4 1 3.70391 4.12865 13.4669
41 2 6.97313 3.24752 12.3571
55 3 8.03468 3.66322 13.4257
63 3 5.30354 3.59475 12.4908
73 3 7.27301 4.20193 10.9874
95 3 7.1074 1.97655 11.6533
21 1 12.9791 2.44925 12.5219
24 1 9.28996 3.07799 11.1218
47 3 10.5193 1.66312 11.5577
58 3 13.0067 4.01574 11.6976
40 2 10.8418 0.321312 12.5403
53 3 12.1696 0.967609 13.2924
66 3 11.8669 12.3862 11.6608
20 1 2.76852 5.74207 10.0183
38 2 0.483848 4.92132 10.6229
75 3 1.37876 5.90359 11.386
52 3 0.51394 7.9863 13.2718
83 3 4.62297 8.07281 13.5499
3 1 3.6341 9.10531 12.4104
82 3 5.79596 6.70889 10.8196
51 3 4.38681 5.50506 14.2189
37 2 5.08979 6.71852 13.7906
11 1 8.0478 5.68974 13.2849
46 3 6.6362 6.6388 13.8535
28 1 7.85484 8.24052 11.6764
90 3 8.88765 6.81571 11.8971
65 3 10.3204 4.65919 11.4137
17 1 13.0821 6.56198 12.3492
33 2 10.2746 6.27458 11.157
72 3 11.5523 7.20323 11.4224
35 2 0.0970542 9.34031 13.1823
91 3 1.75478 9.4492 11.3777
2 1 1.90102 12.0268 13.2085
50 3 4.3213 11.1054 12.2037
87 3 1.98758 11.9795 11.2855
64 3 1.03756 10.4627 13.5372
19 1 0.331988 13.0148 10.7533
85 3 5.01004 8.87394 11.2463
13 1 4.78927 12.7795 12.7853
16 1 8.11682 11.4606 12.1312
97 3 6.5403 12.6152 12.4063
49 3 8.99562 9.99155 11.8303
70 3 11.9942 9.51926 12.3506
25 1 10.9455 10.9331 11.5907
84 3 9.68777 12.5573 12.9089
ITEM: TIMESTEP
6300
ITEM: NUMBER OF ATOMS
178
ITEM: BOX BOUNDS pp pp pp
0.0000000000000000e+00 1.3168533823700001e+01
0.0000000000000000e+00 1.3168533823700001e+01
0.0000000000000000e+00 3.5381309593600001e+01
ITEM: ATOMS id type x y z
143 6 4.00173 0.271022 0.728804
149 6 1.73269 1.64466 0.988082
163 7 3.5074 2.29248 3.21384
101 4 2.83098 3.80544 0.638987
108 4 3.24779 12.8902 3.2993
126 5 1.57707 4.08414 3.22197
151 6 12.8947 1.97083 3.06533
104 4 7.84049 2.67011 1.23132
147 6 5.85587 0.687191 3.15762
159 7 4.98964 2.51481 1.00234
166 7 7.05001 0.295001 0.749715
109 4 6.30878 3.62039 3.49811
171 7 8.41112 0.922624 3.12774
144 6 12.9631 4.08337 0.751642
127 5 10.5158 2.62654 1.68802
167 7 12.638 0.365944 0.685199
148 6 9.64225 0.4649 0.109416
105 4 1.83432 5.8234 1.0928
120 5 3.07974 7.78201 1.88189
122 5 3.99208 4.8324 2.6251
102 4 5.46529 6.64875 1.54767
123 5 8.02152 5.73501 1.51341
107 4 8.02036 8.53908 2.40042
124 5 13.1016 6.96018 2.0114
145 6 11.0251 8.55034 1.99015
103 4 10.6387 5.23141 1.38771
169 7 9.83139 6.49015 3.54057
106 4 1.78499 12.2085 0.44896
128 5 2.80982 10.6446 2.30758
141 6 0.0529633 10.2759 0.856045
113 4 0.604397 12.4169 2.91981
161 7 0.564399 9.2259 3.32785
142 6 5.50504 8.99055 2.5594
100 4 5.50844 11.4083 1.59795
121 5 8.71111 11.415 1.72565
125 5 11.3899 11.0028 2.75699
115 4 11.2215 11.4606 0.297938
116 4 10.8835 0.239226 2.52287
117 4 2.75654 4.06067 5.41379
130 5 1.72534 1.1465 5.30998
131 5 4.91754 1.76381 5.53176
134 5 7.93668 2.30322 5.59365
177 7 12.8062 2.89678 5.74336
178 7 10.5583 2.30394 4.78558
172 7 9.04966 4.04721 3.48692
160 7 10.2803 2.54817 7.72216
136 5 2.87604 6.60171 6.55316
152 6 0.473122 5.48491 5.94387
153 6 1.13161 8.59824 6.23841
168 7 1.87941 6.7233 3.93196
165 7 4.53748 6.81386 4.24453
110 4 6.95258 6.55745 3.96833
112 4 5.28134 4.56647 5.50796
133 5 5.99312 6.89613 6.89783
156 6 8.00463 5.00169 5.96158
173 7 8.66036 7.43562 6.07079
132 5 12.0291 4.66935 3.47999
137 5 10.9065 4.94857 6.15324
150 6 11.9846 7.66083 5.01262
111 4 1.95246 11.1867 5.03219
164 7 3.31142 8.88967 4.60505
176 7 3.78248 12.8308 6.30434
129 5 7.39778 11.0805 4.11948
114 4 4.81138 11.0913 4.50356
155 6 7.22371 13.1548 5.7442
162 7 6.03018 11.3687 6.9284
170 7 6.47795 8.86915 5.27492
174 7 8.73399 10.6995 6.73722
175 7 12.3216 13.0584 5.1649
139 6 9.85083 12.0447 4.86754
154 6 9.68225 9.36953 4.41941
157 6 12.239 10.4732 5.52138
68 3 2.62669 2.17565 8.3416
79 3 2.57469 0.22462 9.45345
32 2 2.5889 0.59213 7.94484
61 3 1.47415 3.64485 10.0926
8 1 1.67881 1.7096 10.3451
39 2 4.13488 2.78038 8.12592
23 1 7.13395 3.2398 8.29427
76 3 5.16046 2.34459 9.08527
119 5 5.69076 0.740998 8.09818
78 3 7.9123 0.0985193 9.19203
26 1 4.98609 3.14202 10.9322
140 6 12.4292 0.903206 7.60662
30 2 10.4341 0.59523 6.40921
48 3 9.34798 2.88033 9.45372
67 3 0.110313 1.17021 9.57483
18 1 10.9601 4.66061 9.14016
9 1 8.96301 0.245 7.61418
22 1 10.7878 0.899856 10.2006
89 3 10.226 12.4027 9.69153
10 1 0.724495 3.66857 8.3264
12 1 1.62307 7.61451 10.5391
44 3 1.71229 6.83126 8.6407
54 3 1.92491 9.13003 8.12529
56 3 3.69541 8.14196 7.57757
62 3 3.60194 7.823 10.4623
69 3 3.91427 3.937 7.24124
43 3 4.14895 4.64589 10.1153
74 3 5.31493 8.18113 8.8272
42 2 5.30229 5.58606 9.53303
57 3 4.50377 6.06007 8.24624
94 3 6.58416 5.48229 8.67532
34 2 4.91375 7.91765 10.3323
45 3 7.68269 8.19422 9.50491
118 4 10.5264 8.91182 7.03481
92 3 12.636 5.07802 9.56901
27 1 8.60539 6.49861 9.10406
77 3 12.9044 8.07221 9.68596
135 5 12.6035 6.88571 7.70266
80 3 10.3453 6.79263 9.80507
5 1 11.5726 8.6673 10.923
99 4 1.06364 11.9509 6.92782
96 3 1.00769 11.1799 9.25954
138 5 3.70824 10.0498 7.18985
60 3 3.40386 10.5014 9.57329
29 2 2.14627 10.4821 10.5542
7 1 4.0179 12.3094 9.15277
158 6 6.87725 9.04023 7.73303
31 2 7.43832 11.7774 8.68181
98 3 7.45784 10.7772 9.9846
81 3 5.32079 12.7614 10.238
6 1 5.71137 11.2792 10.9276
14 1 13.0242 9.53253 8.48587
15 1 8.98362 9.54206 9.56026
88 3 11.8494 10.6207 9.41163
146 6 11.2454 11.7334 7.63445
36 2 2.61276 1.78878 12.4509
59 3 1.15574 1.27075 12.27
71 3 2.64974 3.04561 13.2278
93 3 3.49291 1.94934 11.0627
86 3 3.31386 0.445996 13.0915
1 1 7.38955 0.172531 10.7953
4 1 3.79463 4.61388 13.3183
41 2 6.84558 3.1261 12.104
55 3 8.04423 3.89857 12.4929
63 3 5.49523 2.92579 12.7517
73 3 6.40699 4.08788 10.9561
95 3 7.57239 1.87619 11.3801
21 1 12.8526 2.18148 12.8251
24 1 9.38918 3.20962 11.1772
47 3 10.5327 1.96486 11.6999
58 3 12.8995 3.91668 11.8095
40 2 10.7686 0.540156 12.5372
53 3 11.3799 1.33394 13.8078
66 3 11.9642 0.0845188 11.5465
20 1 2.84079 5.99261 9.93474
38 2 0.568801 4.64517 10.7248
75 3 1.38608 5.9534 11.3013
52 3 0.564849 8.27415 13.4513
83 3 5.1672 8.65967 14.0913
3 1 4.40038 9.77364 12.6722
82 3 5.73829 6.61781 10.625
51 3 4.20239 6.28761 12.7176
37 2 5.20909 7.20895 13.5583
11 1 7.44482 5.38233 12.8404
46 3 6.38254 6.36785 13.8712
28 1 7.27801 8.35041 11.2946
90 3 8.53866 6.4737 11.595
65 3 10.3646 4.62765 10.9533
17 1 12.8979 6.55362 12.62
33 2 10.0927 6.19501 11.3265
72 3 11.2166 6.85499 12.1674
35 2 0.323683 9.73253 13.0049
91 3 2.01069 9.16113 11.4383
2 1 2.42653 12.1088 13.1053
50 3 4.26752 11.4263 12.4216
87 3 1.70701 11.5759 11.5707
64 3 0.890646 11.0021 13.7186
19 1 0.822916 12.795 10.6083
85 3 5.62942 8.99403 11.1592
13 1 4.96532 13.0576 12.5121
16 1 8.5923 11.1822 12.2462
97 3 6.89536 12.039 12.2574
49 3 9.59682 9.95827 11.168
70 3 12.6179 9.90084 11.777
25 1 11.3165 11.4742 10.8884
84 3 9.86554 12.4067 12.515
ITEM: TIMESTEP
6400
ITEM: NUMBER OF ATOMS
178
ITEM: BOX BOUNDS pp pp pp
0.0000000000000000e+00 1.3168533823700001e+01
0.0000000000000000e+00 1.3168533823700001e+01
0.0000000000000000e+00 3.5381309593600001e+01
ITEM: ATOMS id type x y z
143 6 4.23154 13.0009 0.697661
149 6 1.88618 1.60733 1.31368
163 7 3.72899 2.45545 3.29596
101 4 2.49604 3.79408 0.720029
108 4 3.25813 13.0469 3.33765
126 5 1.35275 4.00978 3.37184
151 6 12.9646 1.89733 3.15984
104 4 7.67015 2.74783 1.05111
147 6 5.96357 0.738629 3.04532
159 7 5.0038 2.46736 1.0501
166 7 7.00206 0.182087 0.550783
109 4 6.49519 3.5499 3.279
171 7 8.62327 1.18001 3.05008
144 6 13.0074 4.10604 0.811285
127 5 10.5053 2.93195 1.73102
167 7 12.4523 0.162862 0.6906
148 6 9.5734 0.418563 0.333909
105 4 1.65438 5.89451 1.32702
120 5 3.07236 7.67083 2.03994
122 5 4.1384 4.94149 2.66806
102 4 5.999 6.46096 1.66611
123 5 8.21685 5.48652 1.41477
107 4 7.9922 8.49853 2.57666
124 5 12.8428 6.8913 1.99263
145 6 10.8602 8.57015 2.26397
103 4 10.535 5.55013 1.10831
169 7 9.75991 6.61428 3.76219
106 4 1.60573 12.2197 0.675675
128 5 2.89293 10.5152 2.06915
141 6 0.144184 10.1954 0.823765
113 4 0.812231 12.3476 2.82256
161 7 0.663434 9.16483 3.29611
142 6 5.4433 8.75521 2.66704
100 4 5.43061 11.4413 2.03849
121 5 8.82717 11.5244 1.86033
125 5 11.677 11.1052 2.70491
115 4 10.9068 11.4657 0.0447862
116 4 10.9493 0.439326 2.57045
117 4 2.87307 4.09231 5.39617
130 5 1.78311 1.13683 5.25557
131 5 4.92871 1.8378 5.66379
134 5 7.82815 2.37701 5.71551
177 7 12.7965 3.13764 5.8114
178 7 10.4767 2.35087 4.55557
172 7 9.1012 4.13421 3.50544
160 7 10.3592 2.56137 7.36581
136 5 3.02936 6.3142 6.65443
152 6 0.433993 5.50749 6.03642
153 6 1.07336 8.69002 5.97411
168 7 1.74116 6.58584 4.23407
165 7 4.52074 6.48718 4.5909
110 4 6.89395 6.33715 3.88586
112 4 5.52039 4.42017 5.7259
133 5 5.76348 6.68574 6.67293
156 6 8.07258 4.77485 5.84862
173 7 8.76016 7.652 6.11388
132 5 12.001 5.01279 3.50681
137 5 10.5956 4.97875 5.89536
150 6 11.9256 7.52397 4.96368
111 4 1.72315 11.4206 4.95951
164 7 3.3628 8.90359 4.60361
176 7 3.72842 12.7771 6.41751
129 5 7.21668 11.1235 3.8887
114 4 4.48629 11.182 4.50048
155 6 7.562 13.0508 5.77753
162 7 5.93539 11.2354 6.68716
170 7 6.30625 8.89341 5.18396
174 7 8.54665 10.5939 6.6149
175 7 12.4694 13.1612 5.14109
139 6 9.87157 12.1309 4.79386
154 6 9.83032 9.55148 4.45423
157 6 12.1708 10.3474 5.36823
68 3 2.66841 2.48425 8.16247
79 3 2.24499 0.509071 9.32553
32 2 2.35642 0.862334 7.86669
61 3 1.5268 3.91645 10.3806
8 1 1.66326 1.75316 10.6634
39 2 4.27744 2.687 8.04292
23 1 7.29973 3.25003 8.62505
76 3 5.1183 2.22791 9.07982
119 5 5.77992 0.422079 8.10728
78 3 7.44875 0.0483613 9.31577
26 1 5.3333 2.61476 10.8523
140 6 12.5476 1.04633 7.34851
30 2 10.4354 0.6846 6.25337
48 3 9.3765 3.39074 8.96699
67 3 12.8865 1.13657 9.44483
18 1 10.5931 4.83847 8.99095
9 1 8.79288 0.248149 8.23543
22 1 11.4455 0.492801 10.0681
89 3 9.5421 12.286 10.0838
10 1 0.935564 3.71177 8.32495
12 1 1.7 8.14145 9.61798
44 3 1.46529 6.24346 8.16104
54 3 1.83919 8.51245 7.98042
56 3 3.67763 8.21759 7.26387
62 3 3.36927 7.43867 10.2751
69 3 3.98153 4.17501 7.66903
43 3 4.26714 4.82625 10.8757
74 3 5.23192 8.38668 8.71939
42 2 4.96414 5.63427 9.63982
57 3 4.35105 6.46918 8.44847
94 3 6.03917 5.10625 8.6566
34 2 4.70102 7.83624 10.0947
45 3 7.70423 8.27988 9.57074
118 4 10.5929 8.90248 7.05375
92 3 12.617 4.9864 9.63799
27 1 8.72153 6.78129 9.28587
77 3 13.1248 8.25622 9.63974
135 5 12.4527 7.18563 7.80275
80 3 10.3506 7.52289 9.97414
5 1 11.7358 9.10348 11.018
99 4 0.995898 12.0038 7.04004
96 3 1.01525 10.9036 9.19082
138 5 3.50915 10.2312 7.23155
60 3 3.4673 10.5334 9.6911
29 2 2.227 10.5023 10.3833
7 1 3.75681 12.1625 9.66968
158 6 7.05534 9.31743 7.89224
31 2 7.32127 11.7148 8.63374
98 3 7.68944 10.6556 9.78668
81 3 5.15457 12.9023 10.416
6 1 5.5782 11.1745 10.9496
14 1 12.7468 10.003 8.38614
15 1 9.39965 9.34515 9.64313
88 3 11.4659 10.7772 9.25217
146 6 11.039 11.6762 7.45461
36 2 2.74573 1.84819 12.736
59 3 1.27691 1.72167 12.3566
71 3 2.87017 3.24617 13.238
93 3 3.57905 1.69672 11.2761
86 3 3.07514 0.594794 13.414
1 1 8.15375 13.1573 11.23
4 1 3.39106 4.70113 12.6745
41 2 7.11547 2.81297 12.0776
55 3 7.97455 3.58485 12.9904
63 3 5.62094 2.68783 12.6472
73 3 6.85615 3.89618 10.7266
95 3 7.94264 1.8264 11.335
21 1 12.8839 2.11341 12.5361
24 1 9.66429 3.07187 10.802
47 3 10.7585 1.54243 11.5001
58 3 12.8337 4.19608 12.0732
40 2 11.0475 0.235751 12.3616
53 3 11.9557 0.859171 13.5296
66 3 12.1006 12.7454 11.3593
20 1 2.7032 5.34109 9.9121
38 2 0.293686 4.8483 10.882
75 3 0.964163 6.20238 10.9772
52 3 0.502215 8.62924 13.3077
83 3 4.78563 8.36418 13.921
3 1 3.61405 9.21853 12.4131
82 3 5.76591 6.67527 10.5207
51 3 3.58205 6.25182 13.205
37 2 4.87955 6.91332 13.4165
11 1 7.5128 5.39894 12.0826
46 3 5.97914 6.07421 13.0511
28 1 7.20382 8.11095 11.3015
90 3 8.67839 6.97933 11.8968
65 3 10.2292 5.29358 10.7679
17 1 0.10016 7.16421 12.4388
33 2 10.1268 6.79838 11.2551
72 3 11.3827 7.2683 11.9586
35 2 0.416824 10.075 13.0006
91 3 1.82917 9.35322 11.1559
2 1 2.48528 12.2272 12.8585
50 3 4.27533 11.183 12.4507
87 3 2.25706 11.8745 11.0822
64 3 1.46838 11.0955 13.5322
19 1 0.716013 12.6448 10.2489
85 3 5.13611 8.79339 11.2851
13 1 4.9612 12.9631 12.6839
16 1 8.81701 11.1906 11.8306
97 3 7.23322 11.8875 12.0785
49 3 9.87027 9.78278 11.4296
70 3 12.71 10.572 11.9124
25 1 11.0135 11.3153 10.9309
84 3 10.1573 12.2719 12.7495
ITEM: TIMESTEP
6500
ITEM: NUMBER OF ATOMS
178
ITEM: BOX BOUNDS pp pp pp
0.0000000000000000e+00 1.3168533823700001e+01
0.0000000000000000e+00 1.3168533823700001e+01
0.0000000000000000e+00 3.5381309593600001e+01
ITEM: ATOMS id type x y z
143 6 4.26473 12.7752 0.520044
149 6 2.1005 1.5923 1.50911
163 7 3.84235 2.56346 3.49363
101 4 2.57201 3.81468 0.821983
108 4 3.68738 0.0320276 3.1462
126 5 1.30648 4.0547 3.47341
151 6 12.9431 1.9264 3.19563
104 4 7.89357 2.83604 0.91559
147 6 6.15925 0.645067 3.14613
159 7 4.82126 2.07178 1.03464
166 7 6.91414 0.146252 0.66483
109 4 6.44236 3.73644 3.22625
171 7 8.57402 1.3641 2.89174
144 6 12.8654 3.96031 1.02428
127 5 10.695 2.72853 1.48629
167 7 12.8018 13.1589 0.822505
148 6 9.41272 0.686587 0.0660879
105 4 1.4148 5.79652 1.28414
120 5 3.05789 7.5897 2.01851
122 5 4.13036 4.96756 2.40166
102 4 5.98192 6.47316 1.66814
123 5 8.36408 5.57555 1.44395
107 4 7.89603 8.58874 2.74717
124 5 12.9201 6.95223 2.22847
145 6 11.0555 8.7064 2.16469
103 4 10.8213 5.65912 1.34393
169 7 9.5758 6.52896 3.69327
106 4 1.93863 12.3495 0.275569
128 5 2.92605 10.5534 2.17736
141 6 0.21414 10.3781 0.731886
113 4 0.843385 12.1913 3.09839
161 7 0.834156 9.28243 3.22138
142 6 5.34689 8.72646 2.78779
100 4 5.94657 10.9712 1.87892
121 5 8.68108 11.4788 1.95207
125 5 11.7328 10.9827 2.73775
115 4 10.8803 11.5299 0.27549
116 4 10.8605 0.349772 2.22267
117 4 2.81527 4.06753 5.539
130 5 1.82518 1.29387 5.10926
131 5 5.10016 1.31822 5.33743
134 5 7.76675 2.547 5.52808
177 7 12.8407 2.9963 5.78994
178 7 10.6061 2.18484 4.72002
172 7 8.99958 4.01683 3.59931
160 7 9.93615 2.9192 7.16219
136 5 3.05238 6.38546 6.51037
152 6 0.283619 5.65287 6.24348
153 6 1.00393 8.55344 6.21831
168 7 1.60119 6.60381 4.27229
165 7 4.50336 6.59024 4.39379
110 4 6.89547 6.30322 4.14453
112 4 5.41022 4.29159 5.65305
133 5 6.02789 6.81327 7.10211
156 6 8.13184 5.02912 6.17089
173 7 8.45724 7.57854 6.18948
132 5 11.8981 4.54495 3.64267
137 5 10.7526 5.28057 6.17717
150 6 11.8104 7.83793 4.81278
111 4 1.97299 11.1986 5.02022
164 7 3.2855 8.92146 4.58182
176 7 3.59229 12.7329 6.53188
129 5 7.16411 10.8442 4.07649
114 4 4.54452 11.258 4.32667
155 6 7.8798 13.0823 5.92533
162 7 5.74199 11.1004 6.72468
170 7 6.09886 8.7827 5.40226
174 7 8.51399 10.6571 6.68684
175 7 12.4423 0.0197279 5.11889
139 6 9.95721 12.3173 4.52562
154 6 9.78923 9.62208 4.59345
157 6 12.3686 10.5846 5.21629
68 3 1.84772 2.68851 8.05634
79 3 1.98594 0.650726 9.17842
32 2 2.06718 1.13576 7.6911
61 3 1.36659 4.23083 10.0368
8 1 1.50822 2.36537 9.97808
39 2 4.39301 3.11956 7.6384
23 1 7.39944 3.36251 8.81813
76 3 5.1052 2.49098 8.87022
119 5 5.6063 0.488291 7.72299
78 3 7.26842 13.131 9.17057
26 1 5.28643 2.90877 10.6828
140 6 12.5197 1.01022 7.52594
30 2 10.398 0.674306 6.3796
48 3 9.63023 3.46055 9.16049
67 3 12.7956 1.97102 9.49415
18 1 10.589 5.66957 8.88154
9 1 9.13798 0.457399 8.0085
22 1 11.303 1.12932 10.1805
89 3 10.0503 13.0534 9.5506
10 1 0.239589 3.64092 8.38783
12 1 1.67287 7.88535 10.3377
44 3 1.60915 5.88086 8.0964
54 3 2.12833 8.0464 7.97421
56 3 4.1053 8.3113 7.09074
62 3 3.3573 7.45933 10.4735
69 3 3.71397 4.31295 7.98422
43 3 4.46293 4.67687 10.4501
74 3 5.18192 8.74568 9.04734
42 2 5.20777 5.70124 9.63181
57 3 4.41593 6.43767 8.36942
94 3 6.49997 5.31219 8.9334
34 2 4.7149 8.19541 10.3656
45 3 7.78426 8.29068 9.94685
118 4 10.468 8.60095 7.12428
92 3 12.3446 5.1254 9.37647
27 1 8.03475 6.39581 8.9127
77 3 12.9761 8.3532 9.44046
135 5 12.4757 7.21229 7.76375
80 3 10.1532 7.54723 9.8803
5 1 11.5947 9.01866 10.5202
99 4 0.790887 11.9496 6.91139
96 3 0.994412 10.5339 9.01949
138 5 3.25501 10.0127 6.92125
60 3 3.26794 10.0105 9.15816
29 2 1.99949 10.5387 9.97069
7 1 3.1833 12.5631 9.20086
158 6 7.16571 8.96298 7.9719
31 2 7.35483 11.635 8.58324
98 3 7.38965 10.819 9.85908
81 3 4.93659 12.6897 10.0569
6 1 5.12681 10.8312 10.2821
14 1 12.7616 9.76875 8.02757
15 1 8.91401 9.84468 9.70196
88 3 11.1841 10.5765 9.13678
146 6 10.8233 11.575 7.16699
36 2 2.88145 1.81325 12.3442
59 3 1.46861 1.76544 11.7929
71 3 2.76849 2.92718 13.3894
93 3 3.62563 2.29469 10.7159
86 3 3.4072 0.563601 12.8332
1 1 8.36087 0.179813 11.0721
4 1 2.86647 4.6105 12.3338
41 2 7.74047 3.00989 11.905
55 3 8.63566 3.88397 12.7313
63 3 6.54668 2.10086 12.0248
73 3 6.93598 4.21953 11.0077
95 3 8.74547 2.01073 11.0701
21 1 12.9641 2.29976 12.1662
24 1 10.079 3.71017 11.252
47 3 11.1599 2.15359 11.7711
58 3 12.8532 4.36356 11.9004
40 2 11.4834 0.306091 12.3183
53 3 12.5218 0.668241 13.3839
66 3 12.3694 12.8364 11.0285
20 1 2.83081 5.08215 9.66688
38 2 0.161034 5.14103 10.7131
75 3 0.727207 6.41821 11.2022
52 3 0.588351 8.07161 13.4039
83 3 4.37067 8.20448 13.4004
3 1 3.99397 9.69185 12.4139
82 3 5.56228 6.86419 10.6204
51 3 3.32828 5.89166 13.334
37 2 4.52201 6.74153 13.3626
11 1 7.66124 5.38545 12.8291
46 3 5.80249 6.09634 13.1588
28 1 6.91609 7.77372 11.4921
90 3 8.67658 7.09661 12.2362
65 3 9.75538 5.38868 10.6711
17 1 12.7262 6.5999 12.6496
33 2 9.88203 6.90393 11.105
72 3 11.3669 6.98183 11.7349
35 2 0.441755 9.44305 12.8886
91 3 2.0436 9.49804 11.3269
2 1 2.69816 12.074 12.9292
50 3 4.44661 11.5872 12.6602
87 3 2.24457 12.0277 10.8468
64 3 1.16665 10.6926 13.5469
19 1 0.792815 13.0359 10.4808
85 3 5.52048 9.24404 11.3342
13 1 5.49434 0.0336734 12.5271
16 1 9.02835 11.3747 12.4679
97 3 7.26748 12.3321 12.3478
49 3 9.75049 10.3238 11.2955
70 3 12.6483 9.70021 11.7889
25 1 10.8142 11.6714 10.4032
84 3 10.3865 12.5948 12.4487
ITEM: TIMESTEP
6600
ITEM: NUMBER OF ATOMS
178
ITEM: BOX BOUNDS pp pp pp
0.0000000000000000e+00 1.3168533823700001e+01
0.0000000000000000e+00 1.3168533823700001e+01
0.0000000000000000e+00 3.5381309593600001e+01
ITEM: ATOMS id type x y z
143 6 4.56407 12.519 0.380855
149 6 2.15421 1.58516 1.63888
163 7 3.92339 2.68863 3.69882
101 4 2.52147 3.70961 0.818334
108 4 3.64988 13.1193 3.08968
126 5 1.57027 4.06005 3.41203
151 6 12.7842 1.85948 3.05335
104 4 7.73158 2.94904 0.950887
147 6 6.28863 0.296839 3.17393
159 7 4.92011 1.9053 1.35991
166 7 7.07515 0.295062 0.484213
109 4 6.41062 3.48163 2.97999
171 7 8.62779 1.30124 2.79577
144 6 12.9832 3.90271 1.01503
127 5 10.2687 3.04004 1.79158
167 7 13.0889 0.190482 0.636669
148 6 9.36499 0.737902 35.2263
105 4 1.57196 5.73646 1.08593
120 5 2.87547 7.59217 1.90619
122 5 4.12727 4.85301 2.25975
102 4 5.75173 6.56286 1.68587
123 5 8.2566 5.70074 1.63904
107 4 8.01589 8.56223 2.98497
124 5 12.8728 6.72732 2.33632
145 6 10.8759 8.697 2.08524
103 4 10.7368 5.31514 1.67534
169 7 9.93018 6.73947 3.77133
106 4 2.246 12.1802 0.33362
128 5 3.25112 10.4036 2.01765
141 6 0.254252 10.4846 0.743329
113 4 0.927138 12.4463 2.82882
161 7 0.702185 9.29718 3.16441
142 6 5.38672 8.83441 2.71782
100 4 5.98841 11.0393 1.72451
121 5 8.64801 11.7458 1.75859
125 5 11.8314 11.2235 2.6877
115 4 10.9858 11.7603 0.0997941
116 4 10.9984 0.422099 2.06348
117 4 2.65153 4.00345 5.7202
130 5 1.96048 1.13608 4.80548
131 5 5.03548 1.26758 5.61696
134 5 7.38366 2.265 5.46381
177 7 12.8784 2.88404 5.87189
178 7 10.3853 1.99386 4.67383
172 7 9.12326 4.21887 3.82878
160 7 9.73543 3.24896 7.12191
136 5 2.92257 6.55385 6.66855
152 6 0.46088 5.57163 6.06108
153 6 0.981864 8.64133 6.29182
168 7 1.7664 6.7288 4.09067
165 7 4.22651 6.52408 4.23364
110 4 7.02566 6.19965 4.06408
112 4 5.4212 4.3638 5.22344
133 5 5.59693 6.38248 6.77813
156 6 8.04327 4.97945 6.15982
173 7 8.38744 7.66649 5.86086
132 5 12.0725 4.72939 3.97081
137 5 10.6284 5.63206 6.14503
150 6 12.0314 7.85021 4.98084
111 4 1.89222 11.3059 4.7475
164 7 3.1269 8.90951 4.51652
176 7 3.49582 12.5722 6.31658
129 5 7.33019 10.8068 4.39565
114 4 4.8074 11.0867 4.38328
155 6 7.9732 13.0068 6.08749
162 7 5.77905 11.5166 6.87932
170 7 5.89978 8.7324 5.5066
174 7 8.25953 10.5735 7.01313
175 7 12.4528 0.022311 5.11794
139 6 9.90325 12.1506 4.51744
154 6 9.89917 9.73546 4.78116
157 6 12.4267 10.5042 5.33748
68 3 2.15135 2.29729 7.97527
79 3 1.57026 0.382281 9.10648
32 2 2.08199 0.825703 7.78337
61 3 1.16236 4.36702 9.97738
8 1 1.52997 2.15965 9.60285
39 2 4.85283 2.97455 7.73713
23 1 6.82112 3.98475 8.78697
76 3 5.42328 2.94853 9.04928
119 5 5.86616 0.680474 8.03302
78 3 7.44954 0.101504 9.25174
26 1 5.22311 3.03465 11.06
140 6 11.9496 0.965449 7.49521
30 2 10.4511 0.365729 6.09687
48 3 10.8761 3.48158 9.37043
67 3 12.7755 2.03408 9.11194
18 1 10.3476 5.76251 9.02276
9 1 9.33365 0.564488 8.27584
22 1 11.074 1.78483 10.224
89 3 9.94524 13.0274 9.9192
10 1 12.1345 3.76088 8.20406
12 1 2.0793 7.55925 10.4921
44 3 1.4528 6.3892 8.16323
54 3 2.2624 8.34119 7.95516
56 3 4.36915 8.09345 7.40316
62 3 3.6887 7.4809 10.2836
69 3 3.70309 4.00396 7.42921
43 3 4.31402 4.72918 10.6047
74 3 5.28625 8.74417 9.00043
42 2 4.63007 6.2503 9.9227
57 3 3.93709 5.87808 8.55092
94 3 6.24908 5.9622 8.91294
34 2 5.10687 8.14722 10.5322
45 3 7.61982 8.06095 9.91547
118 4 10.3064 8.47866 7.19023
92 3 12.2073 5.52191 9.73782
27 1 8.0352 6.52469 9.03473
77 3 0.0313993 8.23184 9.12426
135 5 12.2856 7.0063 7.85555
80 3 10.4809 8.01595 10.6306
5 1 12.0309 8.90658 10.5224
99 4 0.768721 11.8746 7.02658
96 3 0.874021 10.9404 9.40787
138 5 3.63728 10.0288 7.22604
60 3 3.41149 10.2795 9.68824
29 2 2.04626 10.587 10.4271
7 1 3.52878 12.3214 9.54784
158 6 7.09747 8.88326 7.98831
31 2 7.56277 11.783 8.78772
98 3 7.41951 11.0665 10.1006
81 3 5.17654 12.5743 10.2512
6 1 5.74943 10.6409 9.93827
14 1 12.6558 9.74081 8.19822
15 1 9.33111 10.3067 9.69468
88 3 11.1846 10.2554 9.10433
146 6 10.7147 11.4087 7.00497
36 2 2.67557 1.81874 11.8005
59 3 1.30443 1.80132 11.1827
71 3 2.36678 2.9909 12.8859
93 3 3.4822 2.26665 10.4738
86 3 3.26156 0.509711 12.1336
1 1 8.04138 0.387084 10.9166
4 1 2.54674 4.38056 11.739
41 2 7.55711 2.82512 11.5995
55 3 8.2756 3.63755 12.6327
63 3 6.38885 1.90961 11.8483
73 3 6.88604 3.98795 10.6348
95 3 8.65281 1.96768 10.7676
21 1 0.300893 2.68183 13.2353
24 1 10.1768 3.57267 11.7903
47 3 11.395 2.26972 11.775
58 3 12.7897 4.76774 12.1662
40 2 11.776 0.669851 12.2036
53 3 12.881 0.871882 13.4123
66 3 12.2545 12.6738 11.053
20 1 2.60864 4.66887 9.0068
38 2 0.273106 5.2357 10.7334
75 3 1.09783 6.44252 11.3144
52 3 0.691984 8.34375 13.3598
83 3 4.22312 8.03601 13.9632
3 1 3.97222 9.51526 12.6134
82 3 5.61275 6.71628 11.1342
51 3 3.57827 5.64213 12.8519
37 2 4.6156 6.48473 13.7142
11 1 7.70784 5.43351 11.5675
46 3 5.98609 6.15589 13.9825
28 1 7.17995 8.61907 11.7867
90 3 8.38576 7.15465 12.0986
65 3 9.40382 5.70946 10.5954
17 1 12.9592 6.8759 12.636
33 2 9.85044 6.97833 11.6015
72 3 10.9328 6.57302 12.7233
35 2 0.758443 9.58661 12.6282
91 3 1.77831 9.22366 11.0612
2 1 2.59412 12.0338 13.1169
50 3 4.42879 11.2113 12.8458
87 3 2.16422 11.7963 11.2063
64 3 1.55803 10.7228 13.2584
19 1 0.68006 12.6456 10.3258
85 3 5.5376 9.43067 11.304
13 1 5.42749 12.5458 12.073
16 1 9.21323 11.928 12.4026
97 3 7.38741 12.1363 12.1965
49 3 9.87868 10.7453 11.3515
70 3 12.6604 9.79609 11.846
25 1 11.3086 11.5052 10.1387
84 3 10.5081 0.212915 12.7669
ITEM: TIMESTEP
6700
ITEM: NUMBER OF ATOMS
178
ITEM: BOX BOUNDS pp pp pp
0.0000000000000000e+00 1.3168533823700001e+01
0.0000000000000000e+00 1.3168533823700001e+01
0.0000000000000000e+00 3.5381309593600001e+01
ITEM: ATOMS id type x y z
143 6 4.77591 12.6571 0.436761
149 6 2.14687 1.41506 1.7233
163 7 3.83883 2.47235 3.56808
101 4 2.63082 3.57206 0.831244
108 4 3.60699 12.812 3.11545
126 5 1.5216 4.13049 3.40647
151 6 12.7899 1.99109 3.19411
104 4 7.87694 2.98745 0.813683
147 6 6.4315 0.126774 3.30982
159 7 5.03157 1.90265 1.49768
166 7 7.08428 0.498071 0.39476
109 4 6.84906 3.44247 3.15056
171 7 8.552 1.17062 2.75578
144 6 13.032 3.90592 1.00876
127 5 10.4109 3.05998 1.72388
167 7 12.9484 0.363202 0.576056
148 6 9.67285 0.848138 0.0183213
105 4 1.77846 5.81412 1.20705
120 5 3.07496 7.6613 1.90953
122 5 4.50241 4.63478 2.09216
102 4 5.88447 6.76041 1.30477
123 5 8.33803 5.71404 1.84366
107 4 8.06076 8.43784 2.63616
124 5 12.8302 6.75458 2.15224
145 6 10.9027 8.88752 2.48237
103 4 10.5806 5.61851 1.36933
169 7 9.87083 6.67272 3.82093
106 4 2.19265 12.4097 0.55961
128 5 2.88173 10.4559 2.09362
141 6 0.227521 10.5369 0.604361
113 4 0.903322 12.2836 2.76392
161 7 0.592026 9.16493 3.17696
142 6 5.41068 8.70417 2.86005
100 4 5.95174 11.1121 2.06497
121 5 8.83636 11.6615 1.71768
125 5 11.6297 11.3027 2.49205
115 4 11.2492 11.9514 0.0171476
116 4 11.1225 0.498673 2.17854
117 4 2.84447 4.25177 5.54726
130 5 1.7872 1.11127 4.89486
131 5 5.06614 1.17309 5.47085
134 5 7.74143 2.28407 5.59132
177 7 12.7261 2.87873 5.82111
178 7 10.4245 2.05731 4.58121
172 7 9.17898 4.22407 4.00216
160 7 9.82386 3.0339 6.77033
136 5 2.90612 6.70201 6.42244
152 6 0.460757 5.40171 6.11061
153 6 1.279 8.83884 6.1918
168 7 1.45531 6.69489 4.01373
165 7 4.17034 6.40475 4.22978
110 4 6.77528 6.17699 3.91043
112 4 5.28061 4.11263 5.29649
133 5 5.58958 6.42267 6.66978
156 6 7.67426 4.95597 6.03843
173 7 8.15038 7.75225 5.82593
132 5 11.8129 4.66085 3.73746
137 5 10.4881 5.52277 6.38426
150 6 12.1661 7.71484 5.00695
111 4 1.77541 11.3077 4.91324
164 7 3.2553 8.90647 4.51331
176 7 3.55003 12.623 6.36341
129 5 7.46591 10.571 4.33836
114 4 4.70323 11.1619 4.54936
155 6 7.92991 12.9144 6.12782
162 7 5.97521 11.6081 6.76363
170 7 5.80292 8.79701 5.42487
174 7 8.40993 10.3971 6.71337
175 7 12.4118 0.0627791 4.97825
139 6 9.94919 12.2216 4.38886
154 6 10.1643 9.54885 4.92364
157 6 12.3735 10.653 5.21778
68 3 2.39103 2.59526 7.96301
79 3 1.78493 0.37535 8.86082
32 2 2.54652 1.09782 7.66245
61 3 0.89522 3.91045 9.55975
8 1 0.929966 2.22507 9.29746
39 2 4.55683 2.9547 7.5943
23 1 6.83762 3.37894 7.84427
76 3 5.22689 2.55124 8.97233
119 5 5.98139 0.638592 8.0174
78 3 7.07893 12.9653 9.89987
26 1 4.81555 3.31444 10.8416
140 6 11.6239 0.67547 7.2749
30 2 9.89911 0.518616 6.12516
48 3 10.9796 3.77456 10.0896
67 3 12.1543 0.90434 9.16958
18 1 10.675 5.4388 9.79923
9 1 8.78075 0.256265 8.72033
22 1 10.5027 1.85787 10.0269
89 3 9.76521 0.202334 10.456
10 1 12.1514 3.56536 8.85409
12 1 2.10211 7.84833 10.2242
44 3 1.7137 6.26898 7.98184
54 3 2.21997 8.42364 8.06412
56 3 4.30382 8.01706 7.62784
62 3 3.55663 7.55762 10.5697
69 3 4.18219 4.40881 7.61887
43 3 4.07977 4.77664 10.4655
74 3 5.25338 8.70156 9.49599
42 2 4.73055 5.98004 9.8401
57 3 3.74786 6.33965 8.62759
94 3 6.01083 6.2386 8.64478
34 2 4.89735 7.98755 10.8011
45 3 7.71236 8.05467 9.70845
118 4 10.4105 8.36914 7.18692
92 3 12.2927 5.71895 9.93209
27 1 8.15231 6.33314 9.05019
77 3 12.9705 8.08429 9.44579
135 5 12.6166 6.98603 7.86212
80 3 10.5155 8.17612 11.141
5 1 12.0522 9.14282 10.9911
99 4 0.834359 12.0454 6.90278
96 3 0.949181 10.7101 8.95427
138 5 3.83222 10.0594 7.15288
60 3 3.35286 10.4623 9.22582
29 2 1.91109 10.6251 10.1638
7 1 3.20014 12.5992 9.55124
158 6 6.64936 8.9274 7.85101
31 2 7.09914 11.5683 9.00144
98 3 7.13887 10.4384 9.99422
81 3 4.54451 12.0873 11.0145
6 1 4.89688 10.5967 10.4853
14 1 12.4199 9.93122 7.92719
15 1 9.37952 9.65699 10.0321
88 3 11.2671 10.7145 9.43217
146 6 10.5919 11.4931 7.29126
36 2 2.70448 1.98565 11.7617
59 3 1.24534 1.37616 11.5068
71 3 2.35341 3.43313 12.0786
93 3 3.56732 1.93628 10.5244
86 3 3.14125 0.968915 12.7398
1 1 8.18724 0.576085 11.8221
4 1 2.70566 5.16921 12.0817
41 2 7.31794 3.45817 11.3853
55 3 8.07034 4.22522 12.7113
63 3 6.18332 2.54638 11.918
73 3 6.94045 4.34811 10.2759
95 3 8.61618 2.38165 11.0924
21 1 13.1342 2.52027 12.1405
24 1 10.0544 3.72642 11.8988
47 3 11.0477 2.19451 12.3105
58 3 13.1162 4.4356 11.8929
40 2 11.5525 0.817784 12.8952
53 3 12.6283 1.35003 13.8617
66 3 12.201 13.1271 11.7522
20 1 2.54195 4.66347 8.82317
38 2 0.440428 4.97307 10.6069
75 3 1.52893 6.07029 10.8677
52 3 0.283278 8.33541 12.9656
83 3 4.54364 8.04797 14.0045
3 1 3.96822 9.77179 13.5278
82 3 5.60407 6.54113 10.9827
51 3 3.32518 5.79292 13.5492
37 2 4.55391 6.59182 13.8425
11 1 7.68235 5.87138 12.836
46 3 5.93707 6.11895 13.9964
28 1 7.2904 8.86959 11.536
90 3 8.37664 7.78934 12.6526
65 3 9.18106 6.11629 10.7054
17 1 12.5806 6.70308 13.0182
33 2 9.829 7.04267 11.9418
72 3 10.7804 6.12332 12.6994
35 2 0.926411 9.67512 12.6612
91 3 2.10683 9.37231 10.9579
2 1 2.86711 12.2808 12.8649
50 3 4.48132 11.5747 13.4077
87 3 2.06097 11.8848 10.9793
64 3 1.81024 10.2985 13.6858
19 1 0.32528 12.9805 10.2412
85 3 5.03366 9.24153 11.811
13 1 5.70639 12.7876 12.3276
16 1 9.32423 11.9232 12.9911
97 3 7.7056 12.5743 12.9632
49 3 9.7638 10.5948 11.5778
70 3 12.9749 10.4071 11.972
25 1 10.9261 11.7739 10.8041
84 3 10.2881 0.135032 13.6219
ITEM: TIMESTEP
6800
ITEM: NUMBER OF ATOMS
178
ITEM: BOX BOUNDS pp pp pp
0.0000000000000000e+00 1.3168533823700001e+01
0.0000000000000000e+00 1.3168533823700001e+01
0.0000000000000000e+00 3.5381309593600001e+01
ITEM: ATOMS id type x y z
143 6 4.43381 12.7342 0.699555
149 6 2.21533 1.55114 1.60126
163 7 3.79381 2.54823 3.6511
101 4 2.90363 3.6706 0.986433
108 4 3.7371 13.0884 3.25932
126 5 1.84237 4.22999 3.53867
151 6 0.0804018 2.2557 3.13844
104 4 8.02097 3.21543 0.923283
147 6 6.46976 0.0957521 3.26974
159 7 5.25213 1.83579 1.38066
166 7 7.29454 0.351573 0.69627
109 4 6.5326 3.1595 3.37432
171 7 8.69791 1.4863 2.6794
144 6 13.1318 4.08945 0.932242
127 5 10.736 3.14098 1.52082
167 7 13.0005 0.428514 0.850451
148 6 9.78158 0.895679 35.3499
105 4 1.88289 5.652 1.32962
120 5 3.05636 7.45158 1.75481
122 5 4.84479 4.69934 1.97841
102 4 5.9403 6.81596 1.34664
123 5 8.08024 5.4212 1.36251
107 4 8.15529 8.33043 2.57534
124 5 12.8206 6.97378 1.83524
145 6 11.1402 8.74551 2.69455
103 4 10.5434 5.73251 1.55832
169 7 9.57857 6.64782 4.04413
106 4 2.09817 12.2784 0.334997
128 5 3.05568 10.5784 2.15486
141 6 0.360765 10.7357 0.554306
113 4 0.785141 12.3607 2.9178
161 7 0.728832 9.38666 3.10049
142 6 5.50965 8.69108 2.57512
100 4 5.84727 10.9302 1.72809
121 5 8.57359 11.6945 1.62764
125 5 11.5235 11.1255 2.33231
115 4 11.0283 11.8382 35.2866
116 4 11.0082 0.300756 2.16425
117 4 2.77485 4.33678 5.72582
130 5 1.95462 1.11058 5.04735
131 5 5.23952 1.34898 5.4627
134 5 7.82739 2.2274 5.42737
177 7 12.5992 2.90691 5.96801
178 7 10.7041 2.08509 4.3195
172 7 9.03061 4.04991 3.75396
160 7 10.0084 3.01827 6.98044
136 5 2.86419 6.66814 6.23954
152 6 0.37272 5.34258 6.24812
153 6 0.929574 8.91829 6.15055
168 7 1.45233 6.78308 4.28219
165 7 4.11065 6.26487 3.94498
110 4 6.72282 6.29749 3.87427
112 4 5.48886 4.20854 5.40476
133 5 5.44445 6.42513 6.73802
156 6 7.91721 4.94628 5.98721
173 7 8.0725 7.61746 6.0105
132 5 12.2304 4.92322 3.67187
137 5 10.4676 5.4717 6.30238
150 6 12.1243 7.5757 5.05634
111 4 2.14053 11.2589 4.95041
164 7 3.19461 8.77188 4.44837
176 7 3.71109 12.7862 6.6078
129 5 7.45963 10.4584 3.97798
114 4 4.69722 11.1435 4.28117
155 6 7.94445 12.5885 6.17001
162 7 5.801 11.138 6.76736
170 7 5.7282 8.6639 5.29734
174 7 8.28753 10.1244 7.10396
175 7 12.4327 0.131265 4.95388
139 6 9.94382 11.9571 4.61627
154 6 9.96031 9.454 5.14414
157 6 12.3736 10.7005 5.09051
68 3 3.05572 2.56008 8.62735
79 3 1.59228 0.522515 8.93237
32 2 2.50726 1.18879 7.91353
61 3 0.520125 3.72448 9.48118
8 1 12.7011 2.27623 10.1081
39 2 4.44955 3.08273 7.85916
23 1 6.8773 3.15123 7.78704
76 3 5.38375 2.48146 8.87267
119 5 5.70117 0.561462 7.74652
78 3 6.97773 0.153676 9.43192
26 1 4.7989 2.90981 10.9286
140 6 11.7146 0.56359 7.33526
30 2 9.67195 0.721972 6.24491
48 3 11.1117 3.56795 9.95906
67 3 11.8947 0.559816 9.34311
18 1 10.5303 5.37229 9.20971
9 1 8.70403 0.602989 8.72684
22 1 10.1258 2.00384 10.7329
89 3 9.32626 0.256538 10.4211
10 1 12.2253 4.24997 8.24833
12 1 1.95049 7.34672 10.8962
44 3 1.61018 6.08175 7.82228
54 3 2.21931 8.39106 7.69447
56 3 4.20793 8.05359 7.49867
62 3 3.77792 7.12637 10.8888
69 3 4.00142 4.4342 7.53574
43 3 4.50469 4.77928 10.5847
74 3 4.86054 8.87529 9.68307
42 2 4.69478 6.14233 9.78547
57 3 3.62159 6.18348 8.5212
94 3 5.67519 6.78347 8.88246
34 2 4.71007 8.27489 11.0645
45 3 7.48193 8.49564 9.6154
118 4 10.5148 8.01293 7.21567
92 3 12.3338 5.9125 10.0911
27 1 7.64749 6.64637 9.63932
77 3 13.0209 8.67966 8.9677
135 5 12.6431 7.30576 7.80085
80 3 10.4526 8.39869 10.5936
5 1 11.8677 9.55964 10.3335
99 4 0.874102 12.2716 6.86881
96 3 0.879028 10.9235 8.88555
138 5 3.38063 10.1189 7.07627
60 3 3.31476 10.512 9.15214
29 2 1.77508 10.795 9.98954
7 1 3.08047 12.833 9.85527
158 6 6.26013 9.0777 7.9672
31 2 6.93196 11.6529 8.78692
98 3 6.80601 10.8318 10.0905
81 3 4.56284 12.1687 11.2489
6 1 4.86573 10.7375 10.0605
14 1 12.5363 9.93272 7.95481
15 1 9.01492 9.58632 9.86529
88 3 11.347 11.073 9.34307
146 6 10.5328 11.4675 7.21463
36 2 2.59112 1.90214 11.9022
59 3 0.800051 1.9788 11.4508
71 3 3.05847 3.24173 11.8108
93 3 3.42463 1.28417 10.8052
86 3 2.38652 0.901575 12.9823
1 1 7.19922 0.939868 11.0712
4 1 3.10302 5.14942 12.1479
41 2 7.59779 3.72247 11.2351
55 3 8.08269 4.63012 12.1762
63 3 6.34101 2.80998 11.7336
73 3 6.97378 4.70421 9.91561
95 3 8.56846 2.73775 10.7849
21 1 0.202122 2.75597 12.898
24 1 10.1167 4.31928 12.6963
47 3 10.3102 2.29652 12.7989
58 3 0.005382 4.62793 12.045
40 2 11.1661 0.938427 13.1504
53 3 12.5151 1.47812 13.6699
66 3 11.7709 0.223869 11.7782
20 1 2.93574 4.45762 9.20305
38 2 0.358294 4.92816 10.5755
75 3 1.89625 5.4949 10.6225
52 3 0.519014 7.84798 11.9778
83 3 4.40274 8.17428 14.5764
3 1 3.68149 9.65074 13.7643
82 3 5.82233 7.14432 11.439
51 3 3.11533 6.34232 13.5975
37 2 4.42488 6.83263 14.1128
11 1 6.89369 6.36951 12.8053
46 3 5.74928 6.19405 14.0935
28 1 6.77818 9.22851 11.1983
90 3 8.21946 7.67603 11.8845
65 3 9.45848 6.282 10.2089
17 1 12.3605 6.63525 11.759
33 2 9.74731 7.30875 11.3255
72 3 10.5894 6.3895 12.3153
35 2 1.02532 9.27022 12.1055
91 3 1.76868 9.37 10.6496
2 1 3.22338 12.4484 12.7265
50 3 4.25743 11.4455 13.943
87 3 1.97381 11.9255 11.0487
64 3 2.00907 9.74865 13.1612
19 1 0.55326 0.214893 11.3015
85 3 4.91674 9.53705 11.9969
13 1 5.72027 11.2982 12.6193
16 1 9.11935 12.5996 12.2736
97 3 7.11513 12.7233 12.3965
49 3 9.34621 10.7517 11.1665
70 3 12.7916 10.116 11.84
25 1 10.4975 12.0901 10.4171
84 3 10.161 13.0164 13.865
ITEM: TIMESTEP
6900
ITEM: NUMBER OF ATOMS
178
ITEM: BOX BOUNDS pp pp pp
0.0000000000000000e+00 1.3168533823700001e+01
0.0000000000000000e+00 1.3168533823700001e+01
0.0000000000000000e+00 3.5381309593600001e+01
ITEM: ATOMS id type x y z
143 6 4.53793 12.7449 0.643631
149 6 2.45712 1.69097 1.36835
163 7 4.11034 3.02055 3.56763
101 4 2.89338 3.80473 0.875949
108 4 3.7225 0.149948 3.46189
126 5 1.88719 4.3956 3.75324
151 6 0.103801 2.08664 3.11858
104 4 7.95769 3.08419 0.719313
147 6 6.59852 0.0409181 3.36977
159 7 5.23094 1.94591 1.53103
166 7 7.24132 0.260052 0.529901
109 4 6.79736 3.25604 3.33695
171 7 8.82253 1.35665 2.67362
144 6 0.104787 4.26405 0.978105
127 5 10.8764 2.86332 1.65995
167 7 12.9151 0.437617 0.755332
148 6 9.65218 0.942089 35.3307
105 4 1.98128 5.67692 1.57299
120 5 3.13333 7.74266 1.90558
122 5 5.20882 4.68831 1.64712
102 4 5.8755 6.88798 1.23191
123 5 8.05836 5.75652 1.76585
107 4 8.03035 8.2857 2.75692
124 5 0.0207411 7.10961 2.12759
145 6 10.999 8.5706 2.7205
103 4 10.5699 5.6586 1.85107
169 7 9.65867 6.50533 4.18814
106 4 2.02142 12.5223 0.514307
128 5 3.10433 10.533 2.00681
141 6 0.194379 10.696 0.629226
113 4 0.99384 12.5587 2.85859
161 7 0.8688 9.48779 3.0826
142 6 5.45791 8.8958 2.53164
100 4 6.20612 11.1651 1.89115
121 5 8.95669 11.6862 2.03014
125 5 11.8464 11.1993 2.45737
115 4 11.0844 12.0626 0.20138
116 4 11.1906 0.521133 2.4024
117 4 2.82161 4.05471 6.04993
130 5 1.99884 1.45073 5.27958
131 5 5.40199 1.52966 5.44611
134 5 8.10518 1.82918 5.45975
177 7 12.8829 2.90695 5.97126
178 7 10.6966 2.48857 4.49248
172 7 9.16984 4.10033 3.54246
160 7 9.99449 2.84823 6.92164
136 5 3.05417 6.6908 6.39248
152 6 0.509662 5.52637 6.20299
153 6 0.785013 8.84593 6.00509
168 7 1.37326 6.95646 4.1261
165 7 4.04214 6.08622 3.92427
110 4 6.72923 6.07394 3.93416
112 4 5.33387 4.13926 5.36361
133 5 5.54352 6.36715 6.71297
156 6 8.15874 4.68155 6.01406
173 7 7.9035 7.55534 6.20093
132 5 12.1958 4.82199 3.6245
137 5 10.9962 5.08981 5.99391
150 6 11.9214 7.76743 5.04865
111 4 1.94967 11.4903 4.82793
164 7 3.15917 8.91745 4.32703
176 7 3.69307 12.7379 6.39314
129 5 7.30275 10.1945 4.4192
114 4 4.6972 11.0839 4.15235
155 6 7.97907 12.2782 6.22491
162 7 5.54178 11.0779 6.62689
170 7 5.55763 8.41846 5.24273
174 7 7.8916 9.89386 7.17489
175 7 12.5144 0.12613 4.95713
139 6 10.0128 12.0468 4.39459
154 6 9.84043 9.55698 5.29246
157 6 12.2273 10.6121 4.97049
68 3 2.91803 2.41033 8.31929
79 3 1.39743 0.707182 8.92636
32 2 2.0764 1.23506 7.67302
61 3 0.655696 3.8705 9.46307
8 1 12.7227 1.9626 9.9209
39 2 4.43336 2.96905 8.01252
23 1 6.86886 3.4871 8.20718
76 3 5.12756 2.19387 9.0482
119 5 5.72649 0.683436 7.83394
78 3 6.84444 12.8999 9.5244
26 1 4.42555 3.03457 10.9157
140 6 11.6107 0.524408 7.26595
30 2 9.92198 0.497234 5.88206
48 3 11.5305 3.43873 10.0119
67 3 12.2235 0.381028 9.08892
18 1 10.139 4.766 8.81829
9 1 8.32076 0.62189 8.66913
22 1 10.3615 2.10371 10.2341
89 3 9.09719 0.648296 10.3783
10 1 12.4203 3.80692 8.38342
12 1 1.85605 6.86011 10.2571
44 3 1.55786 6.2109 7.77484
54 3 1.85745 8.74601 7.84215
56 3 3.7368 8.01025 7.7752
62 3 3.52522 7.25277 10.6553
69 3 4.39297 4.42326 7.83919
43 3 4.40973 4.84071 10.7115
74 3 4.73845 9.20057 9.81674
42 2 4.45829 6.07966 9.88209
57 3 3.42938 6.10367 8.69768
94 3 5.48614 6.61458 8.82137
34 2 4.51611 8.25904 11.093
45 3 7.794 8.31063 9.89156
118 4 10.2465 8.04487 7.35425
92 3 12.936 6.02779 9.87776
27 1 7.90849 6.55461 9.46467
77 3 12.8658 8.42359 9.17707
135 5 12.4858 6.95923 7.8687
80 3 10.2126 8.4259 10.5775
5 1 11.7277 9.6193 10.2789
99 4 0.796279 12.0533 6.80417
96 3 0.723897 11.0687 8.91316
138 5 3.22198 10.0073 6.94875
60 3 3.14061 11.202 9.3482
29 2 1.59223 10.8797 10.0708
7 1 3.19493 0.140235 9.43347
158 6 5.88956 8.78855 8.04434
31 2 6.78715 11.3286 8.86553
98 3 6.83568 10.4145 10.4091
81 3 4.62253 12.4504 11.0708
6 1 4.93713 10.8096 10.2183
14 1 12.562 9.87096 8.09863
15 1 9.0534 9.72773 9.68993
88 3 11.2871 10.918 9.19737
146 6 10.3811 11.2913 7.09278
36 2 2.31103 1.68865 12.1825
59 3 0.807679 2.05652 11.5237
71 3 2.79083 3.00338 12.4943
93 3 3.38945 1.34803 10.9073
86 3 1.95052 0.341953 13.1778
1 1 6.25922 0.654198 11.0885
4 1 3.03843 4.7241 12.4486
41 2 7.44221 3.81813 10.8997
55 3 7.77185 4.73677 12.0741
63 3 6.28358 2.85052 11.1942
73 3 6.74113 5.18678 9.80962
95 3 8.56867 3.5009 9.98157
21 1 12.8075 2.8108 12.5598
24 1 10.2156 4.53809 12.0557
47 3 10.4653 2.96841 12.2829
58 3 13.032 4.68387 11.9208
40 2 10.7414 1.4151 12.8562
53 3 11.7108 1.61341 13.9311
66 3 11.798 1.09982 11.4607
20 1 2.35211 4.09781 9.03386
38 2 0.539737 4.89757 10.6081
75 3 1.99756 4.9964 10.673
52 3 0.984178 7.46323 11.5299
83 3 4.10564 8.34918 14.5632
3 1 3.48621 9.66474 13.3795
82 3 5.69502 7.43745 11.5324
51 3 3.26168 6.42992 13.252
37 2 4.45537 6.99188 14.1342
11 1 6.97825 6.06564 12.2772
46 3 5.75309 6.29278 13.8465
28 1 7.26028 8.8094 11.4701
90 3 8.70855 7.55016 12.3548
65 3 9.38082 6.17564 10.0941
17 1 12.6311 6.59965 11.7268
33 2 9.83528 7.15489 11.3236
72 3 10.9431 6.17087 11.6328
35 2 1.08107 9.07501 11.8101
91 3 1.89728 9.50635 10.4731
2 1 3.01533 12.1795 12.2823
50 3 3.95413 11.5473 13.581
87 3 1.30964 11.791 11.2112
64 3 1.71694 9.32054 13.0385
19 1 0.27532 0.0532605 12.4071
85 3 4.62147 9.48813 11.9773
13 1 5.56405 11.4702 12.5981
16 1 8.54167 12.5423 11.9416
97 3 6.84649 12.8554 12.5984
49 3 9.7297 11.1584 11.0785
70 3 12.9264 9.56965 11.5173
25 1 10.5201 12.3513 9.98889
84 3 9.71553 0.501817 13.0186
ITEM: TIMESTEP
7000
ITEM: NUMBER OF ATOMS
178
ITEM: BOX BOUNDS pp pp pp
0.0000000000000000e+00 1.3168533823700001e+01
0.0000000000000000e+00 1.3168533823700001e+01
0.0000000000000000e+00 3.5381309593600001e+01
ITEM: ATOMS id type x y z
149 6 2.47559 1.86384 1.35513
163 7 3.95594 3.51083 3.32756
101 4 3.08908 3.90816 0.968012
108 4 3.70277 0.21602 2.95788
151 6 0.0558053 2.08699 3.00887
144 6 0.128812 4.1851 1.11437
104 4 8.04683 3.08579 1.05254
159 7 5.45383 1.80535 1.7877
166 7 7.15705 0.272652 0.542776
109 4 6.70677 3.43619 3.27206
171 7 8.82035 1.30602 2.69022
127 5 10.7626 3.19516 1.60149
167 7 13.0408 0.623871 0.515076
148 6 9.65855 1.00534 0.110715
116 4 11.271 0.63205 2.17612
105 4 2.40785 5.77024 1.78757
120 5 2.96619 8.03817 1.74317
122 5 5.5315 4.78968 1.41093
102 4 5.73638 7.06774 1.56758
123 5 8.48401 5.80687 1.68295
107 4 7.99256 8.16931 3.23552
124 5 12.9251 7.12363 1.99227
103 4 10.8771 5.77804 1.3691
106 4 2.23979 12.7759 0.303521
128 5 3.03145 10.8368 2.03541
141 6 0.385426 10.7353 0.458203
113 4 1.06558 12.6242 2.70497
161 7 0.66738 9.46705 3.0666
143 6 4.78967 12.6187 0.630097
142 6 5.32416 8.9421 2.73638
100 4 6.20131 11.1006 1.92407
145 6 10.578 9.11625 2.72501
121 5 8.78619 11.6667 1.56138
125 5 11.9436 11.308 2.59103
115 4 11.1411 11.9594 0.0433304
126 5 1.50404 4.18767 3.68371
117 4 2.98464 3.87245 5.95067
130 5 2.22575 1.3749 4.71881
177 7 0.147108 2.85039 5.86199
147 6 6.80554 0.00798654 3.61066
131 5 4.94543 1.597 5.08139
134 5 7.84588 2.01443 5.54135
112 4 5.65816 3.99139 5.67649
178 7 10.9585 2.30001 4.64376
172 7 9.35179 4.17586 3.54047
175 7 12.6933 0.220365 4.95078
140 6 11.334 0.255999 7.06036
30 2 9.61138 0.677579 5.51732
136 5 3.14732 6.39344 6.56752
152 6 0.605761 5.65923 6.11946
168 7 1.49575 6.97751 4.04802
165 7 4.09717 5.97025 3.8557
110 4 6.78377 5.96292 3.94987
156 6 8.16261 4.40595 5.92335
173 7 7.8585 7.282 6.0582
170 7 5.46372 8.37837 5.31012
169 7 9.65386 6.58293 4.32564
132 5 12.1679 5.07477 3.6936
137 5 10.7573 4.89465 6.21292
150 6 11.8557 7.75347 5.17574
153 6 0.995614 8.96936 6.03276
111 4 1.83456 11.4629 4.75468
164 7 3.22885 9.00777 4.37092
176 7 3.48948 12.8628 6.2552
99 4 0.856326 11.8279 6.84789
138 5 3.28336 10.1289 7.02506
129 5 7.20425 10.5303 4.41663
114 4 4.7067 11.321 4.30249
155 6 8.01963 12.2329 6.2216
162 7 5.60398 11.1467 6.81857
139 6 9.90315 12.0985 4.39668
154 6 9.64574 9.52738 5.1657
157 6 12.0861 10.772 5.28027
68 3 2.98987 2.78349 8.02955
79 3 1.81834 0.850552 8.99792
32 2 2.37188 1.33805 7.67442
61 3 0.476037 3.22239 9.53014
7 1 2.95072 0.157017 10.1053
20 1 3.46945 3.55493 9.63645
39 2 4.6603 2.51881 7.71985
23 1 6.59268 3.35013 8.41989
76 3 5.05959 1.55183 8.85365
119 5 5.92153 0.254574 7.44424
9 1 8.51399 0.4945 8.76455
69 3 4.89951 3.88059 8.29849
73 3 6.68803 4.32734 9.90527
95 3 8.52317 3.09098 10.1193
160 7 9.95706 2.47734 7.20058
8 1 13.1156 1.6947 9.86734
48 3 11.0185 3.78792 9.73183
67 3 12.273 0.304392 8.87186
22 1 10.4045 2.00715 10.0547
89 3 9.3954 0.616042 10.022
10 1 12.3409 3.65814 8.21568
12 1 1.40392 7.65434 10.2597
44 3 1.36839 6.78504 7.76486
56 3 3.67256 7.8471 7.88575
42 2 4.09685 6.05706 10.151
57 3 3.09224 5.90305 8.67374
38 2 0.585724 4.58316 10.29
133 5 5.73119 5.91453 7.09064
94 3 5.32478 6.52097 9.29801
45 3 7.51961 8.16291 9.48343
27 1 7.52701 6.33744 9.91201
158 6 5.59535 8.5028 7.68955
18 1 9.67986 5.09434 9.01427
118 4 10.0566 7.86673 7.23875
92 3 13.1495 5.73086 9.51951
77 3 12.711 8.1091 9.21203
135 5 12.2132 6.62568 7.80508
65 3 9.34417 6.07783 10.3786
54 3 2.00876 8.93822 8.02938
74 3 4.28348 9.0562 9.49787
96 3 0.439295 10.7878 8.89485
60 3 2.88114 11.3738 9.26057
29 2 1.35382 10.9629 10.1298
174 7 7.78944 9.70096 7.16427
78 3 6.91056 12.9412 9.47115
31 2 7.09647 11.3307 8.9823
98 3 7.13461 10.4698 10.2557
6 1 4.40341 10.8675 10.1095
5 1 11.8535 9.10488 10.5908
14 1 12.2528 9.69776 7.99196
15 1 9.41591 10.2357 9.78781
88 3 11.0765 10.4854 9.26138
146 6 10.2571 11.2269 7.28212
25 1 10.7482 12.3895 10.2594
36 2 2.40056 1.95678 12.0388
59 3 1.00227 2.1151 11.5924
71 3 3.17667 3.11706 12.8517
93 3 3.42444 2.13215 10.79
86 3 2.15459 0.685173 12.8349
19 1 0.140382 0.519963 12.2663
26 1 5.14873 3.60144 12.4393
1 1 5.93185 0.460031 10.9359
41 2 7.33485 3.26966 11.0073
55 3 7.53825 4.30344 12.3678
63 3 6.40286 2.19166 11.4833
21 1 12.7944 3.1098 12.5546
47 3 10.372 3.0073 12.3074
40 2 10.6012 1.60961 12.8599
53 3 11.896 1.82299 13.6989
66 3 11.5439 0.594869 11.5652
84 3 9.32282 0.949464 13.1687
62 3 3.29828 7.3529 10.8337
43 3 4.37661 4.92327 11.144
4 1 2.8369 5.01923 12.5855
75 3 2.05862 4.67612 10.6907
52 3 0.834897 7.39718 11.8774
51 3 3.5554 6.09867 13.7675
34 2 4.42782 8.55272 10.9296
82 3 5.44739 7.69611 11.6728
37 2 4.79871 6.97238 14.0212
11 1 7.37887 5.99428 13.0814
46 3 5.94839 6.01595 13.9193
28 1 7.22697 8.67978 11.4367
90 3 8.38838 7.47399 12.3736
80 3 9.97943 8.63439 10.6288
24 1 9.95235 4.83453 11.7852
58 3 12.886 4.78363 11.597
17 1 12.3263 6.58685 11.7203
33 2 9.55053 7.33816 11.3916
72 3 10.6744 6.58015 12.3373
81 3 4.2444 12.3153 11.2889
3 1 3.70791 9.95439 14.0184
35 2 1.02882 9.07719 12.114
91 3 1.74279 9.42289 10.6439
2 1 2.65995 12.0452 12.5334
50 3 3.88423 11.7356 13.9304
87 3 1.16597 11.9982 11.2185
64 3 2.00119 9.80928 13.1886
85 3 4.54781 9.90014 11.8418
13 1 5.44372 11.4027 12.4391
16 1 8.68759 12.9386 11.9159
97 3 6.72861 12.5859 12.1566
49 3 9.42859 11.4524 11.3242
70 3 12.7874 9.80086 11.8488
83 3 4.40191 8.35014 14.331
ITEM: TIMESTEP
7100
ITEM: NUMBER OF ATOMS
178
ITEM: BOX BOUNDS pp pp pp
0.0000000000000000e+00 1.3168533823700001e+01
0.0000000000000000e+00 1.3168533823700001e+01
0.0000000000000000e+00 3.5381309593600001e+01
ITEM: ATOMS id type x y z
149 6 2.46249 1.8879 1.482
163 7 4.11037 3.6189 3.15301
101 4 3.45424 3.97291 0.559587
108 4 3.89473 12.8156 3.02872
151 6 12.987 2.26993 2.8781
144 6 0.279214 4.4763 1.03863
104 4 8.1716 3.33563 0.918665
159 7 5.48697 1.82833 1.98277
166 7 7.41912 0.4309 0.812019
109 4 6.87464 3.36889 3.44758
171 7 8.77621 1.6101 2.92513
127 5 10.8132 3.10302 1.59136
167 7 13.0972 0.651399 0.48762
148 6 9.78547 0.964222 35.2161
116 4 11.0229 0.616231 2.12914
105 4 2.52419 5.84643 1.39458
120 5 2.49896 8.11185 1.7548
122 5 5.76773 4.49949 1.21272
102 4 5.7385 6.87746 1.71634
123 5 8.38978 5.85934 1.751
107 4 7.84682 8.15257 2.88436
124 5 12.9932 7.0095 2.0428
103 4 10.7816 5.54597 1.58461
106 4 2.44819 12.7259 0.0207708
128 5 3.02094 10.6635 1.8724
141 6 0.704014 11.0416 0.352193
113 4 1.14325 12.7273 2.47038
161 7 0.420216 9.51582 3.19695
143 6 4.66685 12.8083 0.340152
142 6 5.15016 8.90431 2.78128
100 4 5.89754 11.26 1.92993
145 6 10.4116 9.58255 3.19056
121 5 8.92848 11.9785 1.81515
125 5 12.1561 11.4311 2.45878
115 4 11.3486 12.0251 35.2829
126 5 1.59054 4.43036 3.69525
117 4 2.95601 3.83617 5.7813
130 5 2.05061 1.5058 4.3556
177 7 0.0822031 3.01953 5.6707
147 6 7.11213 12.992 3.68249
131 5 4.86078 1.46574 4.75906
134 5 7.65663 1.87132 5.53814
112 4 5.40531 3.89042 5.85796
178 7 10.7656 2.20526 4.79978
172 7 9.29722 4.03563 3.78432
175 7 12.8902 0.0710699 4.76947
140 6 11.0645 12.9337 6.90447
30 2 9.39677 0.624878 5.7223
136 5 3.13491 6.46653 6.28027
152 6 0.495897 5.52801 6.11879
168 7 1.45828 7.06048 4.09176
165 7 4.12844 6.25239 4.02692
110 4 6.78249 5.89352 4.14535
156 6 8.25211 4.5559 6.12044
173 7 7.95162 7.19775 6.15554
170 7 5.69927 8.33608 5.33343
169 7 9.83675 6.66403 3.93261
132 5 12.178 4.85046 3.76865
137 5 10.9371 5.0232 6.14556
150 6 12.0009 8.09598 4.96886
153 6 0.874041 8.92688 6.04997
111 4 1.86229 11.4546 4.51525
164 7 2.99906 8.99876 4.55808
176 7 3.5181 12.7757 6.23039
99 4 0.921517 11.8924 6.80229
138 5 3.15302 10.0852 7.13797
129 5 7.40196 10.333 4.19787
114 4 4.67563 11.1167 4.46279
155 6 8.12949 12.1604 6.35486
162 7 5.69509 10.8726 6.74587
139 6 9.98546 11.9424 4.27706
154 6 9.58757 9.45284 5.5446
157 6 12.0352 10.754 5.39207
68 3 2.85309 2.93987 7.89937
79 3 1.41588 0.896378 8.79534
32 2 2.19437 1.42982 7.54329
61 3 0.0480966 3.43881 9.67098
7 1 3.11775 0.0289718 9.82667
20 1 2.56516 3.51551 9.38547
39 2 4.58992 2.72417 7.69627
23 1 6.99083 3.27451 8.42083
76 3 4.78079 1.71486 8.9285
119 5 5.79887 0.744724 7.02784
9 1 8.46779 0.429067 8.67603
69 3 5.11203 3.94486 8.32619
73 3 7.15435 4.26022 9.99847
95 3 8.25339 2.40841 11.0831
160 7 9.82576 2.47155 7.34885
8 1 12.7393 1.59289 9.63369
48 3 10.3005 3.29087 9.19646
67 3 11.7326 0.37091 8.86896
22 1 9.90058 1.97854 10.6809
89 3 9.3117 0.152156 10.3188
10 1 12.2877 3.62418 8.21879
12 1 1.49992 8.00736 9.78029
44 3 1.4066 6.81837 7.58242
56 3 3.2448 8.0577 7.70404
42 2 3.85535 6.01434 9.88464
57 3 2.89275 5.41162 8.80952
38 2 0.696431 4.77399 10.4951
133 5 5.77664 5.89468 6.82024
94 3 4.94327 6.50101 8.86315
45 3 7.13869 7.9124 9.58654
27 1 6.84986 6.12333 10.1906
158 6 5.54285 8.42242 7.87047
18 1 9.00104 5.4392 8.62532
118 4 10.3316 7.74363 7.14641
92 3 0.551626 6.10192 9.73403
77 3 12.0975 8.33329 9.31131
135 5 12.5003 6.91515 7.8263
65 3 8.84302 5.83432 10.4311
54 3 1.10866 9.16623 8.01819
74 3 4.65407 9.21638 9.64461
96 3 0.383214 11.3179 9.15342
60 3 2.78906 11.0765 9.47495
29 2 1.27621 11.063 10.22
174 7 7.77014 9.4398 7.35252
78 3 6.66274 12.7552 9.23021
31 2 7.18983 11.2001 8.8584
98 3 7.20981 10.6197 10.3799
6 1 5.05651 10.9456 9.56528
5 1 11.3926 9.6409 10.8157
14 1 12.3381 9.79077 8.13902
15 1 8.86555 9.795 10.4787
88 3 11.1947 10.6799 9.19457
146 6 9.98847 10.7384 7.38616
25 1 11.0406 12.1749 10.158
36 2 2.61691 2.05422 12.1684
59 3 1.11239 2.14956 12.1121
71 3 3.17725 3.26192 12.9136
93 3 2.82073 2.15559 10.5682
86 3 2.63804 0.72283 13.2527
19 1 0.754803 0.134302 12.4681
26 1 4.96416 3.8627 12.4534
1 1 5.83541 0.678127 10.6695
41 2 7.27166 3.43109 11.3214
55 3 7.41522 4.34372 12.5342
63 3 5.84021 2.70077 11.4905
21 1 13.1213 3.24761 12.9727
47 3 11.0931 2.97389 12.2197
40 2 11.3981 1.08515 12.8268
53 3 12.6754 1.43295 13.8012
66 3 11.9912 0.440782 11.5628
84 3 9.95842 0.817782 13.2043
62 3 3.10505 7.38031 10.3206
43 3 4.55806 5.3665 11.2241
4 1 2.71533 5.17503 12.8394
75 3 1.92818 4.57163 11.1397
52 3 0.663575 7.74411 12.2807
51 3 3.36167 6.31264 14.0013
34 2 4.09942 8.51099 10.954
82 3 5.38087 7.66638 11.5094
37 2 4.80391 6.86566 14.1717
11 1 7.01181 6.11892 13.0041
46 3 5.82217 5.74593 14.2897
28 1 6.50189 8.90668 10.7571
90 3 8.0695 7.27445 12.1245
80 3 9.98946 8.34379 10.7993
24 1 10.8652 4.54359 11.2465
58 3 12.6808 4.9921 11.6608
17 1 12.3492 6.73544 12.4826
33 2 9.3321 7.04908 11.1999
72 3 10.5234 6.30577 12.0576
81 3 4.59595 12.4992 10.8384
3 1 3.25366 9.52888 13.7588
35 2 0.864981 9.20423 12.1061
91 3 1.26609 9.51982 10.6185
2 1 3.13095 12.0392 12.3176
50 3 4.02827 11.0358 13.7018
87 3 1.56987 12.2815 11.09
64 3 1.48631 10.0397 13.2416
85 3 3.70436 9.82028 11.6878
13 1 5.69467 11.6136 12.6119
16 1 8.79821 12.389 12.0598
97 3 6.85605 12.6821 11.9732
49 3 10.0093 10.8932 11.4708
70 3 12.6449 10.1539 11.9696
83 3 4.77126 8.37702 14.3096
ITEM: TIMESTEP
7200
ITEM: NUMBER OF ATOMS
178
ITEM: BOX BOUNDS pp pp pp
0.0000000000000000e+00 1.3168533823700001e+01
0.0000000000000000e+00 1.3168533823700001e+01
0.0000000000000000e+00 3.5381309593600001e+01
ITEM: ATOMS id type x y z
149 6 2.63344 2.07741 1.66905
163 7 4.36548 3.9092 3.12381
101 4 3.49265 3.59945 0.308442
108 4 3.90524 12.9386 2.97769
151 6 13.1585 2.24964 2.94027
144 6 0.471267 4.58295 0.892061
104 4 8.36993 3.18862 0.819706
159 7 5.35778 1.60601 1.85336
166 7 7.36832 0.68767 0.807586
109 4 6.87729 3.17925 3.2986
171 7 8.84183 1.49983 2.7908
127 5 10.8014 2.94645 1.60163
167 7 12.956 0.794178 0.596306
148 6 9.79302 0.980093 35.2961
116 4 11.0886 0.506016 2.33245
105 4 3.10508 5.666 1.33034
120 5 2.50806 7.94872 1.99027
122 5 5.90963 4.19268 0.944651
102 4 5.17396 6.58596 1.5733
123 5 8.15 5.63627 1.75107
107 4 7.65241 8.04564 3.017
124 5 12.7188 7.03956 2.26101
103 4 10.4977 5.38547 1.44464
106 4 2.40665 12.7774 0.328975
128 5 3.00384 10.6826 2.01603
141 6 0.497147 10.9567 0.223852
113 4 1.32445 12.9673 2.43154
161 7 0.680414 9.50862 3.15839
143 6 4.87671 0.11797 35.2749
142 6 5.19451 8.7765 2.51317
100 4 6.03455 11.7061 1.93709
145 6 10.2889 9.74236 3.13162
121 5 9.00729 11.787 1.7356
125 5 12.3852 11.557 2.47913
115 4 11.411 12.1589 35.3575
126 5 1.83168 4.4007 3.23661
117 4 2.69776 4.18574 5.71213
130 5 2.28606 1.57812 4.75433
177 7 13.0359 2.94243 5.61718
147 6 7.12259 13.0208 4.16609
131 5 5.07585 1.63276 4.67277
134 5 7.70273 2.17877 5.86182
112 4 5.40661 4.0243 5.4512
178 7 10.6673 2.29347 4.90973
172 7 9.34154 4.27397 3.82123
175 7 12.629 0.383668 4.77033
140 6 10.8217 12.711 6.80244
30 2 8.98507 0.410158 5.78469
136 5 3.11744 6.63747 6.53938
152 6 0.593956 5.65661 6.11723
168 7 1.30967 6.8988 4.14445
165 7 4.01469 6.27374 4.03835
110 4 6.66404 5.85033 3.989
156 6 8.13576 4.57233 6.14386
173 7 8.39267 7.04575 6.03948
170 7 5.67029 8.24842 5.31937
169 7 9.77719 6.67844 3.93524
132 5 12.1415 4.90679 3.63641
137 5 10.775 5.15311 6.03764
150 6 11.8169 7.83853 4.85884
153 6 0.681201 9.00508 6.27011
111 4 1.87007 11.4601 4.58649
164 7 3.07054 8.95923 4.5283
176 7 3.61573 12.6104 6.04476
99 4 0.824843 12.1678 6.726
138 5 3.21868 10.2273 7.00793
129 5 7.39998 10.1006 4.16178
114 4 4.77826 11.0395 4.22006
155 6 8.17892 11.661 6.47947
162 7 5.68769 11.0154 6.66999
139 6 10.0956 11.8804 4.4251
154 6 9.65923 9.47673 5.65541
157 6 12.1384 10.7672 5.31869
68 3 2.65876 2.79034 7.76131
79 3 1.6133 0.879258 9.04382
32 2 1.95419 1.38319 7.53569
61 3 0.293309 4.16516 9.50953
7 1 3.29163 0.389125 9.68762
20 1 2.57534 3.41137 9.4145
39 2 4.62662 2.72299 7.33212
23 1 6.42108 3.07494 8.11162
76 3 5.1219 1.6495 8.44641
119 5 5.93032 0.413841 7.04694
9 1 8.49194 0.099541 8.97394
69 3 4.67203 3.9943 8.13364
73 3 6.99276 4.07029 9.72382
95 3 8.14026 2.21807 11.2696
160 7 9.75968 2.55604 7.47023
8 1 12.8721 1.56785 9.67912
48 3 10.5548 3.03379 9.14013
67 3 12.0015 0.195253 8.50711
22 1 9.74901 1.88904 10.7453
89 3 9.44071 13.117 10.3925
10 1 12.0865 4.16774 8.16334
12 1 1.42059 8.05615 10.8836
44 3 1.60335 6.69298 7.73776
56 3 3.23011 8.36428 7.72723
42 2 3.40909 5.82103 9.97589
57 3 2.78258 5.45146 8.54957
38 2 0.263549 5.10265 10.7735
133 5 5.57256 6.05249 6.7752
94 3 4.59208 6.50293 8.78609
45 3 6.74382 7.52596 9.67333
27 1 6.2019 5.69103 9.98837
158 6 5.45935 8.52088 8.04326
18 1 9.35007 5.47887 8.51778
118 4 10.5397 7.58116 7.48228
92 3 12.9014 6.48129 10.2505
77 3 12.5346 8.68079 9.66165
135 5 12.8163 7.25848 7.83451
65 3 9.40655 5.53409 10.4388
54 3 1.21795 8.81886 8.16879
74 3 4.27175 9.2431 10.0356
96 3 0.488151 11.4901 8.81139
60 3 2.84816 10.8893 9.33791
29 2 1.32666 11.3614 10.0227
174 7 7.69547 9.19659 7.56033
78 3 6.74414 12.3096 9.86659
31 2 7.00309 11.0425 8.87121
98 3 6.90465 10.1361 10.4301
6 1 4.87848 11.2115 9.79422
5 1 11.1255 9.50068 11.0033
14 1 12.6542 10.0389 8.61045
15 1 8.94431 9.97583 10.3266
88 3 10.6604 10.6554 9.68714
146 6 10.1723 10.5664 7.63252
25 1 11.2867 12.3803 10.1267
36 2 2.72917 2.26877 12.0985
59 3 1.2926 2.61754 11.9883
71 3 3.47117 3.42583 12.7634
93 3 3.23632 2.09094 10.6025
86 3 2.66944 0.93305 12.9536
19 1 0.790551 0.329965 12.3901
26 1 4.98976 3.80102 12.2334
1 1 6.18078 0.546488 11.1404
41 2 7.03221 3.38509 11.1046
55 3 6.69611 4.44884 12.1877
63 3 5.63286 2.51769 11.1363
21 1 12.7083 2.87846 12.7128
47 3 11.0704 2.33756 11.7948
40 2 11.5334 0.713281 12.3437
53 3 12.5663 1.13338 13.3668
66 3 12.612 0.315128 11.2471
84 3 10.6334 12.7613 12.6363
62 3 2.97839 7.2507 10.1176
43 3 4.21607 4.9467 10.9078
4 1 2.63819 5.06458 12.9168
75 3 1.73163 5.43708 11.2761
52 3 13.0952 8.21309 12.4492
51 3 2.93226 6.60371 13.3582
34 2 3.96881 8.20267 11.0059
82 3 5.18364 7.37374 11.5843
37 2 4.31463 7.18752 13.6804
11 1 7.03444 5.80497 13.1552
46 3 5.40574 6.21385 13.8387
28 1 6.80638 8.28362 11.4388
90 3 8.08177 7.08224 12.2276
80 3 9.69331 8.2442 10.7521
24 1 10.5681 4.33978 11.3918
58 3 12.4984 4.73139 11.9057
17 1 12.2655 6.71234 11.8847
33 2 9.40751 6.79884 11.4182
72 3 10.4212 6.35389 12.4062
81 3 4.68034 12.7093 10.8322
3 1 3.63157 9.7959 13.5011
35 2 0.323736 9.8075 12.3839
91 3 1.07353 9.78966 10.8021
2 1 3.44338 12.3298 12.4324
50 3 4.83374 11.3651 13.2262
87 3 1.85002 12.2628 11.2103
64 3 1.33078 10.2794 13.4037
85 3 3.16251 8.80067 12.0537
13 1 6.26703 11.6131 11.8166
16 1 9.00789 12.217 12.2276
97 3 7.13536 12.8836 12.5591
49 3 9.19599 10.4383 11.9131
70 3 12.2617 10.622 12.0973
83 3 4.26439 8.53229 14.4309
ITEM: TIMESTEP
7300
ITEM: NUMBER OF ATOMS
178
ITEM: BOX BOUNDS pp pp pp
0.0000000000000000e+00 1.3168533823700001e+01
0.0000000000000000e+00 1.3168533823700001e+01
0.0000000000000000e+00 3.5381309593600001e+01
ITEM: ATOMS id type x y z
149 6 2.496 2.06601 1.77847
163 7 4.4958 3.91497 3.03059
101 4 3.58393 3.38939 0.00815706
108 4 3.7228 13.087 3.0233
151 6 0.0280018 2.32234 3.12765
144 6 0.482171 4.2397 0.937111
104 4 8.79261 3.28327 0.81135
159 7 5.29791 1.75275 1.88163
166 7 7.26993 0.794556 0.681839
109 4 6.88069 3.15258 2.99027
171 7 8.88152 1.17688 3.04962
127 5 11.069 3.22992 1.81226
167 7 13.0779 0.813439 0.719016
148 6 9.91166 0.974579 0.202624
116 4 11.4214 0.457491 2.39308
105 4 2.75883 5.19451 1.30492
120 5 2.71461 7.72204 1.77117
122 5 6.03972 3.81151 0.463414
102 4 5.54295 6.3141 1.64157
123 5 8.11682 5.83269 1.37652
107 4 7.74381 8.12344 3.03342
124 5 12.5864 7.20442 2.14215
103 4 10.5088 5.49682 1.20383
106 4 2.56823 12.7896 0.52539
128 5 3.01606 10.5833 1.98366
141 6 0.531705 11.3157 0.636642
113 4 1.02724 12.7781 2.76354
161 7 0.674031 9.29752 3.1719
143 6 4.70804 0.357095 35.1673
142 6 5.34644 8.8873 2.56604
100 4 5.83809 11.9114 1.82688
145 6 10.3691 9.28503 3.00128
121 5 8.60002 12.0532 1.87076
125 5 12.0877 11.2536 2.7448
115 4 11.0995 11.9632 0.393759
126 5 1.72169 4.38814 3.70335
117 4 2.79218 4.27663 5.7376
130 5 2.02085 1.43829 4.8298
177 7 13.1088 3.25154 5.80801
147 6 6.91746 12.8114 4.45296
131 5 4.78661 1.84617 4.83869
134 5 7.84287 2.12607 5.54113
112 4 5.29605 4.05206 5.56575
178 7 10.5912 2.35788 4.76601
172 7 9.21318 4.15004 3.53775
175 7 12.5051 0.297745 5.00605
140 6 10.9457 12.8991 6.87294
30 2 8.92954 0.25484 5.77804
136 5 3.18709 6.78875 6.57408
152 6 0.317571 5.78371 6.21041
168 7 1.37511 6.91579 4.09295
165 7 3.92912 6.42697 4.02097
110 4 6.7077 5.7079 3.94525
156 6 8.0108 4.38624 5.92786
173 7 8.33453 7.08024 5.95696
170 7 5.61749 8.42561 5.32863
169 7 9.7764 6.67418 3.5172
132 5 12.013 5.09518 3.706
137 5 10.6663 5.06721 6.26995
150 6 11.7746 7.87178 5.27133
153 6 0.804806 9.08585 6.01854
111 4 1.92674 11.5024 4.73662
164 7 3.13518 9.00451 4.47802
176 7 3.93718 12.8507 5.97224
99 4 0.915098 12.3489 6.67692
138 5 3.07502 10.3088 6.96312
129 5 7.47095 10.2238 4.09587
114 4 4.73002 10.8913 4.19382
155 6 8.46797 11.406 6.55708
162 7 5.75659 10.8424 6.67029
139 6 9.92608 11.9567 4.4424
154 6 9.82937 9.33787 5.4291
157 6 11.9529 10.8145 5.40179
68 3 2.92158 2.63701 7.57846
79 3 1.82588 0.713981 8.64876
32 2 2.65085 1.15379 7.37804
61 3 0.30398 3.90001 9.39541
7 1 3.39362 0.519616 9.89746
20 1 2.61 3.62845 9.39259
39 2 4.72987 2.47431 7.57346
23 1 6.52746 3.03105 8.06722
76 3 4.87296 1.52708 8.60527
119 5 6.46011 0.334021 7.07156
9 1 8.75033 0.0864356 8.77182
69 3 4.75051 4.09434 7.83183
73 3 6.95456 3.84716 9.44827
95 3 8.70499 2.87006 10.8969
160 7 9.88082 2.62786 7.4057
8 1 0.0916933 1.50652 9.26556
48 3 10.8853 3.03446 9.50517
67 3 12.2493 13.049 8.51938
22 1 10.2062 1.57508 10.8073
89 3 9.66047 13.1447 10.3523
10 1 11.8647 4.67951 8.6824
12 1 1.33012 8.26706 10.918
44 3 1.30492 7.11738 7.54999
56 3 3.09804 8.44358 7.8658
42 2 3.06559 5.81338 9.59662
57 3 2.37512 5.31203 8.36626
38 2 0.327766 4.93354 10.5368
133 5 6.13923 6.37326 6.97117
94 3 4.23302 6.60816 8.61688
45 3 6.70252 6.43399 9.05203
27 1 5.45351 5.59951 10.2685
158 6 5.31011 8.84769 7.89481
18 1 8.20531 5.40285 9.17123
118 4 10.1085 7.9173 7.8186
92 3 13.081 6.29951 9.64448
77 3 12.6484 8.74248 9.65062
135 5 12.5513 7.4194 7.86363
65 3 9.17801 5.41061 10.8366
54 3 1.27928 9.10107 8.07869
74 3 4.26094 8.85274 9.84092
96 3 0.491175 11.8764 9.11779
60 3 2.84536 10.6924 9.19526
29 2 1.73276 11.3832 9.84912
174 7 7.74992 8.90475 7.28818
78 3 7.34577 12.1174 9.29168
31 2 7.18945 10.7374 8.71867
98 3 6.37545 9.9828 9.9968
6 1 4.67982 10.9103 9.85044
5 1 11.4097 9.45816 11.0421
14 1 0.131417 10.2163 8.60092
15 1 8.96597 9.35461 10.3555
88 3 10.264 10.8396 9.9366
146 6 10.6357 10.4575 7.72071
25 1 11.6955 12.1474 10.231
36 2 2.65059 2.27326 12.1601
59 3 1.2512 2.65641 11.6008
71 3 3.13714 3.44397 12.9258
93 3 3.43457 2.43528 10.6536
86 3 2.95417 0.832446 12.5229
19 1 1.39173 12.6074 12.8532
26 1 4.76904 3.15479 11.5806
1 1 6.73234 0.184795 10.4949
41 2 7.13065 3.41208 10.958
55 3 6.32357 4.65845 11.6851
63 3 6.30862 2.2772 11.1426
21 1 12.7105 2.81471 12.5978
47 3 10.965 2.41922 12.4209
40 2 11.6925 0.57821 12.4617
53 3 13.0759 0.877018 13.1022
66 3 12.0759 0.560989 10.8114
84 3 10.5541 12.7898 12.787
62 3 2.47035 7.15446 10.0548
43 3 3.75107 4.85795 10.4675
4 1 2.04357 4.98232 12.9362
75 3 1.63423 5.20263 11.1481
52 3 13.0463 8.55615 12.4409
51 3 2.65488 6.45732 13.6812
34 2 3.66259 7.75668 10.8365
82 3 4.78674 6.94588 11.5829
37 2 3.95249 6.93535 14.2966
11 1 6.19419 6.50073 12.9067
46 3 5.22494 6.19038 14.3891
28 1 6.50712 8.26658 10.6156
90 3 7.86294 7.39974 11.7317
80 3 10.1749 7.90705 10.935
24 1 10.1796 3.71942 11.0927
58 3 12.3153 4.66823 11.4932
17 1 11.8369 6.84719 12.3244
33 2 9.287 6.85482 11.6704
72 3 10.1812 6.72943 12.9771
81 3 4.84765 13.0162 10.4589
3 1 3.50475 9.74585 13.1833
35 2 0.344112 10.1405 12.3243
91 3 1.14087 10.1379 10.8037
2 1 4.02307 12.7317 11.8828
50 3 4.43136 10.8549 12.083
87 3 2.25023 12.405 10.9981
64 3 1.01701 11.0857 13.2588
85 3 3.00668 8.49806 11.9758
13 1 6.3847 10.8684 12.3358
16 1 8.99098 11.8147 11.5995
97 3 7.18942 12.4806 12.2331
49 3 8.21711 10.1459 11.8401
70 3 12.2604 10.8292 11.8614
83 3 3.95665 8.46468 14.3769
ITEM: TIMESTEP
7400
ITEM: NUMBER OF ATOMS
178
ITEM: BOX BOUNDS pp pp pp
0.0000000000000000e+00 1.3168533823700001e+01
0.0000000000000000e+00 1.3168533823700001e+01
0.0000000000000000e+00 3.5381309593600001e+01
ITEM: ATOMS id type x y z
149 6 2.24803 2.16624 1.92793
163 7 4.24238 3.9772 2.87005
101 4 3.94421 3.05017 0.103483
108 4 3.62565 13.0498 3.30909
151 6 13.0406 2.30873 3.53692
144 6 0.247526 3.88997 1.17291
104 4 8.70455 3.38067 0.721229
159 7 5.00202 1.59399 2.17922
166 7 7.26387 1.18897 0.718538
109 4 6.73263 3.60681 2.99023
171 7 8.64857 1.49381 2.80314
127 5 11.0529 2.9065 1.82809
167 7 0.0688712 1.07946 0.875847
148 6 9.87818 0.931413 0.249643
116 4 11.2457 0.327562 2.53215
105 4 2.44777 5.18174 1.41624
120 5 2.90815 7.54802 1.81238
122 5 6.22428 3.58351 0.510729
102 4 5.41559 6.10803 1.40173
123 5 8.12488 5.71027 1.43894
107 4 7.80947 8.02503 2.50445
124 5 12.7842 7.11498 2.17456
103 4 10.7555 5.46121 1.18813
106 4 2.66825 12.9092 0.790526
128 5 2.86645 10.4831 2.11088
141 6 0.586839 11.2756 0.775038
113 4 0.794216 12.7295 2.93422
161 7 0.579122 9.52063 3.04223
143 6 4.59555 0.632124 35.185
142 6 5.28482 8.74696 2.49393
100 4 5.60289 11.7022 1.74725
145 6 10.5312 9.12856 3.01284
121 5 8.41436 11.893 1.87592
125 5 11.933 11.1415 2.7949
115 4 10.975 11.9226 0.651471
126 5 1.72878 4.33797 3.97739
117 4 2.86757 4.13516 5.94524
130 5 2.09824 1.42845 5.08816
177 7 12.9356 3.37501 6.05823
147 6 6.77225 12.883 4.41929
131 5 4.9097 2.15776 4.67766
134 5 7.499 2.0986 5.13602
112 4 5.57351 4.6153 5.60571
178 7 10.693 2.45499 4.92612
172 7 9.26849 4.19258 3.46635
175 7 12.6484 0.248115 5.06863
140 6 10.97 12.9835 7.01011
30 2 9.00755 0.478175 5.7069
136 5 3.05764 6.64367 6.15111
152 6 0.33041 6.03821 6.27912
168 7 1.36944 6.93488 4.07699
165 7 4.22176 6.27095 3.91379
110 4 6.78407 6.12782 3.84404
156 6 8.28162 4.34363 5.86965
173 7 8.58201 6.8537 5.44937
170 7 5.79525 8.17821 5.20799
169 7 10.0316 6.51805 3.39031
132 5 12.2987 4.95584 3.73459
137 5 10.7059 5.26469 5.97931
150 6 11.6131 7.92525 5.16451
153 6 0.734886 9.04607 5.90031
111 4 1.85486 11.4404 4.72832
164 7 3.06407 8.87665 4.30181
176 7 4.22726 12.9514 6.12665
99 4 1.1291 12.3607 6.81279
138 5 3.35411 10.5852 7.02931
129 5 7.3392 10.1837 4.02592
114 4 4.69918 10.7817 4.23548
155 6 8.66513 11.4263 6.68431
162 7 6.09112 11.0983 6.42489
139 6 9.8609 11.8313 4.38058
154 6 9.55907 9.32851 5.51908
157 6 12.1046 10.7636 5.44707
68 3 3.26778 2.6441 7.73861
79 3 2.01441 0.933963 9.06889
32 2 2.75058 1.11575 7.79796
61 3 12.9097 3.61975 9.89733
7 1 4.14513 0.453974 9.34839
20 1 1.52773 2.71694 9.21451
39 2 4.79758 2.59492 7.69718
23 1 6.88513 3.18734 7.89791
76 3 5.51193 1.67662 8.77371
119 5 6.54087 0.557629 7.1432
9 1 8.83444 0.150422 9.05164
69 3 5.28089 4.14415 8.2467
73 3 7.52994 3.40494 9.85679
95 3 8.74499 3.4909 11.9154
160 7 9.95199 2.64198 7.20464
8 1 12.0797 1.939 9.22148
48 3 10.3641 2.56839 9.57979
67 3 11.9728 0.102462 8.6757
22 1 9.98485 2.1578 11.3846
89 3 9.44139 0.164386 10.8139
10 1 11.8387 4.66159 8.555
12 1 0.885768 7.75858 10.8035
44 3 1.39495 7.17575 7.56917
56 3 3.10443 8.3989 7.33822
42 2 3.38224 5.57669 9.2466
57 3 2.47658 4.92792 8.2163
38 2 13.1051 5.13511 10.5019
133 5 6.1937 6.35322 7.10707
94 3 4.06461 6.55868 7.95636
45 3 6.68831 6.31801 9.19592
27 1 5.91252 4.76844 9.99786
158 6 5.12137 8.82827 7.8538
18 1 8.30025 4.91806 9.01648
118 4 9.7412 7.49015 7.91554
92 3 13.0419 6.30909 9.40706
77 3 12.7501 8.58168 9.79143
135 5 12.3554 7.90389 7.79503
65 3 9.25523 5.86623 10.2871
54 3 1.14689 9.44751 7.94325
74 3 4.38146 8.59685 9.84385
96 3 1.08736 11.8304 8.83422
60 3 3.28779 10.6024 9.32557
29 2 2.15513 11.3964 9.98051
174 7 7.51631 8.98053 7.18569
78 3 7.23278 12.2111 9.43924
31 2 6.76718 10.9676 8.63795
98 3 6.63397 9.9669 9.95025
6 1 4.70345 10.5709 10.3437
5 1 10.9232 9.90597 11.0321
14 1 0.085975 10.2621 9.36937
15 1 8.82735 10.4876 9.6789
88 3 10.8238 10.7939 9.56102
146 6 10.7436 10.0791 7.4638
25 1 11.1791 12.5443 10.3194
36 2 2.80605 1.98778 12.1361
59 3 1.4516 2.02456 11.7145
71 3 3.0841 3.54442 12.5417
93 3 3.94392 1.78519 10.7682
86 3 3.11776 0.732693 13.0337
19 1 0.865954 0.129279 12.3665
26 1 4.66803 3.2255 11.633
1 1 6.4184 0.332291 10.7078
41 2 7.37546 3.19978 11.3812
55 3 6.51249 4.66077 11.7016
63 3 6.52118 1.90119 11.4757
21 1 12.9686 3.36396 11.7732
47 3 11.3937 2.44304 12.586
40 2 11.7016 0.970102 13.0407
53 3 12.901 0.44527 13.779
66 3 12.3169 0.572368 11.3624
84 3 10.4424 0.0601149 13.0656
62 3 2.55302 7.07241 9.71398
43 3 3.78202 4.86142 10.4101
4 1 2.73 5.36201 12.5033
75 3 1.11291 4.89865 11.3593
52 3 12.448 8.89107 12.1682
51 3 2.61051 6.2418 14.4266
34 2 3.61752 7.56569 10.669
82 3 4.75193 6.68998 11.1887
37 2 3.84429 7.08703 14.1594
11 1 6.23915 6.43511 12.3956
46 3 5.0183 6.38426 13.6409
28 1 6.3155 7.83896 10.5857
90 3 7.57884 7.30212 11.6922
80 3 9.92282 8.21472 10.9099
24 1 9.95294 4.94149 11.9306
58 3 11.7086 5.09388 11.4365
17 1 11.235 7.63908 12.1908
33 2 9.06699 6.98264 11.2815
72 3 9.81379 6.43845 12.6087
81 3 4.87712 12.4204 10.4208
3 1 2.93083 9.76846 12.8851
35 2 0.462773 10.1801 11.9164
91 3 1.44027 10.1042 10.6365
2 1 4.02087 12.2046 11.9471
50 3 4.73551 10.3835 12.1651
87 3 2.32121 12.2713 11.177
64 3 1.24363 10.4882 13.0478
85 3 2.7258 8.07072 11.817
13 1 6.6766 10.8629 11.8849
16 1 8.98701 12.2967 12.4081
97 3 7.28584 12.7807 12.3787
49 3 9.02643 10.7587 11.2735
70 3 12.5938 11.3205 11.3952
83 3 3.62547 8.59279 14.2728
ITEM: TIMESTEP
7500
ITEM: NUMBER OF ATOMS
178
ITEM: BOX BOUNDS pp pp pp
0.0000000000000000e+00 1.3168533823700001e+01
0.0000000000000000e+00 1.3168533823700001e+01
0.0000000000000000e+00 3.5381309593600001e+01
ITEM: ATOMS id type x y z
149 6 2.4212 2.13466 2.21865
163 7 4.22705 3.97584 2.97243
101 4 3.56709 3.29414 0.448598
108 4 3.70674 12.9585 3.68223
151 6 13.0304 2.11508 3.70599
144 6 0.0374178 4.11082 1.07848
104 4 8.73858 3.4344 0.464564
159 7 5.3134 1.38018 2.43665
166 7 6.99528 0.937874 0.731904
109 4 6.76495 3.46259 2.74679
171 7 8.45789 1.70897 2.77522
127 5 10.8782 2.77787 1.7592
167 7 12.8816 1.06064 1.0429
148 6 9.60896 0.831727 0.0409625
116 4 10.9226 0.510237 2.62638
105 4 2.1774 5.18054 1.53522
120 5 2.75386 7.69443 1.69682
122 5 6.16114 3.53051 0.397833
102 4 5.01598 5.83757 1.277
123 5 8.40586 5.95039 1.15893
107 4 8.03872 8.26097 2.57376
124 5 13.0183 6.94424 1.86282
103 4 10.9842 5.1897 1.00214
106 4 2.87714 13.0796 0.973659
128 5 3.06945 10.6495 2.10384
141 6 0.456975 11.2587 0.503968
113 4 1.12077 12.7752 2.98455
161 7 0.735259 9.43169 3.06668
143 6 4.79008 0.831182 35.1594
142 6 5.36937 8.48153 2.26824
100 4 5.58788 11.9174 1.994
145 6 10.295 9.56964 3.07226
121 5 8.60183 12.3594 1.98846
125 5 12.112 11.617 2.59098
115 4 11.3693 12.2069 0.202939
126 5 1.72206 4.3058 4.0137
117 4 3.17428 4.17988 6.09267
130 5 1.96126 1.49324 5.20638
177 7 12.9048 3.17683 6.36167
147 6 6.85788 12.9638 4.21594
131 5 4.63385 2.03745 5.19301
134 5 7.49389 2.29457 5.32372
112 4 5.62089 4.82616 5.49554
178 7 10.4369 2.27196 4.84317
172 7 9.31312 4.36723 3.57348
175 7 12.5119 0.201001 5.41601
140 6 10.7854 12.4632 6.96178
30 2 9.08174 0.405033 5.50353
136 5 3.01939 6.69778 6.50688
152 6 0.432449 6.03955 6.28335
168 7 1.36241 6.89858 3.97826
165 7 3.87323 6.30522 3.78319
110 4 6.89612 6.00195 3.46164
156 6 8.46236 4.52938 6.01693
173 7 8.54418 6.9553 5.21886
170 7 5.82659 8.1027 4.94012
169 7 10.0915 6.69478 3.04917
132 5 12.1916 4.93384 3.7233
137 5 10.8763 5.04482 5.99944
150 6 11.7529 7.98045 4.9361
153 6 0.785755 8.99608 5.98414
111 4 1.95998 11.4074 4.9536
164 7 3.16999 8.74611 4.35942
176 7 4.14113 12.9346 6.24435
99 4 1.32263 12.4385 6.90379
138 5 3.26862 10.4433 6.87718
129 5 7.3289 10.3443 3.89718
114 4 4.80258 10.7639 4.39799
155 6 8.47047 11.6959 6.70224
162 7 6.01963 11.1171 6.53882
139 6 9.96942 11.6478 4.50818
154 6 9.28191 9.41621 5.46405
157 6 12.0947 10.7169 5.36107
68 3 3.77168 2.54288 8.69635
79 3 2.09146 0.940497 8.85754
32 2 3.17985 1.33135 7.76192
61 3 0.347946 3.6318 10.5609
7 1 3.45212 13.0526 9.86864
20 1 1.89066 2.99674 9.63158
39 2 5.17806 2.62635 7.97088
23 1 7.37257 3.54054 8.19177
76 3 6.23468 1.8661 8.80002
119 5 6.683 0.51583 6.95329
9 1 8.54386 0.361204 9.15385
69 3 5.54876 4.15066 8.06658
73 3 7.72229 4.00027 10.1165
95 3 8.95499 3.7057 12.1405
160 7 9.75738 2.44273 7.48634
8 1 11.7454 1.51595 9.39106
48 3 10.5331 3.28571 9.29208
67 3 12.0729 13.0588 8.9075
22 1 9.78882 2.1766 11.3324
89 3 10.0478 0.930858 10.2469
10 1 11.539 5.05773 8.75478
12 1 1.39073 7.72207 10.701
44 3 1.29913 7.26064 7.78153
56 3 3.10613 8.50658 7.7635
42 2 3.07798 5.5532 9.24618
57 3 2.08404 5.05528 8.07224
38 2 0.0211809 5.23235 10.6562
133 5 6.75165 6.2931 7.06146
94 3 4.24609 5.90713 8.19043
45 3 6.97587 6.45518 9.33309
27 1 5.51756 4.93319 9.91829
158 6 5.025 8.84232 7.46509
18 1 9.18897 4.72157 9.66364
118 4 9.48775 7.27119 7.42014
92 3 0.0629007 5.9916 9.34513
77 3 12.6721 8.15413 9.93307
135 5 12.5967 8.0616 7.82525
65 3 9.66328 6.27027 10.0994
54 3 1.46831 9.36057 7.85283
74 3 4.31715 8.67005 9.78475
96 3 1.23661 11.4494 8.87065
60 3 3.30835 10.7409 9.2447
29 2 2.10446 10.9782 10.1676
174 7 7.54878 8.9951 7.21289
78 3 7.91725 12.0215 9.81013
31 2 6.98946 10.722 8.76384
98 3 6.44834 10.0504 10.1846
6 1 4.78123 10.6667 10.4455
5 1 10.9287 9.95117 11.8095
14 1 12.49 11.2629 9.12635
15 1 9.19786 10.6457 9.76745
88 3 10.9927 10.3342 9.3374
146 6 10.7931 9.78667 7.29642
25 1 10.8919 12.4888 10.5678
36 2 3.01341 1.66448 12.2127
59 3 1.70476 1.63789 11.4522
71 3 3.20508 3.01409 12.9558
93 3 4.18025 1.53991 11.0973
86 3 3.14266 0.46084 13.1271
19 1 0.731326 12.9687 11.6848
26 1 4.65204 3.25218 11.9785
1 1 6.49568 13.1355 11.7469
41 2 7.44664 3.25562 11.465
55 3 6.16131 4.13066 11.811
63 3 7.40074 1.66658 11.5381
21 1 13.0236 2.34628 11.7358
47 3 11.5485 2.77941 12.9318
40 2 11.6741 1.2458 12.8586
53 3 13.0375 0.815018 13.2371
66 3 12.0452 0.976726 11.289
84 3 10.3408 0.6779 13.2394
62 3 2.58263 6.86793 9.67542
43 3 3.44771 4.53509 10.3724
4 1 1.89758 4.75836 12.7682
75 3 1.17448 5.63338 11.4891
52 3 12.3459 9.00554 12.2523
51 3 2.54992 6.15675 13.6444
34 2 3.73344 7.4488 10.5231
82 3 4.9763 6.65378 10.8382
37 2 3.76502 6.98064 14.058
11 1 6.14586 6.53185 12.3176
46 3 5.16338 6.55305 13.8862
28 1 6.21407 8.05722 10.0568
90 3 7.64308 7.46244 11.5638
80 3 9.9842 8.56779 10.8654
24 1 9.9328 5.00153 12.4615
58 3 11.8308 5.50163 11.4004
17 1 11.6047 7.4337 11.1894
33 2 9.18409 7.24894 11.3075
72 3 9.72914 6.94975 12.7437
81 3 5.03324 12.4648 10.7827
3 1 2.83413 9.30259 13.1316
35 2 0.38858 9.99564 11.7265
91 3 1.5452 9.63046 10.673
2 1 3.7653 12.1083 12.5313
50 3 4.35725 10.4219 12.4981
87 3 2.512 11.9346 11.1761
64 3 1.36238 10.256 12.9142
85 3 3.06786 8.03102 11.768
13 1 6.3353 10.4434 12.1431
16 1 9.05772 12.4894 13.0226
97 3 6.84077 11.967 12.9231
49 3 10.0119 11.4214 11.7777
70 3 12.7203 11.2691 11.1239
83 3 3.31697 8.27077 14.597
ITEM: TIMESTEP
7600
ITEM: NUMBER OF ATOMS
178
ITEM: BOX BOUNDS pp pp pp
0.0000000000000000e+00 1.3168533823700001e+01
0.0000000000000000e+00 1.3168533823700001e+01
0.0000000000000000e+00 3.5381309593600001e+01
ITEM: ATOMS id type x y z
149 6 2.28751 2.05905 2.62354
163 7 4.30928 3.88893 3.39779
101 4 3.53213 3.34275 0.701277
108 4 3.91304 12.9593 3.6504
151 6 12.7334 2.26054 3.40532
144 6 0.248044 3.89235 1.24525
104 4 8.56245 3.32864 0.735084
159 7 5.29508 1.61286 2.26915
166 7 7.24867 0.667626 0.528714
109 4 6.88225 3.68881 3.08067
171 7 8.50963 1.62224 2.79467
127 5 10.8049 3.12046 1.78445
167 7 0.034609 0.81674 1.10311
148 6 9.63113 1.06966 0.0923213
116 4 10.9705 0.590886 2.37322
105 4 2.13506 5.3392 1.86393
120 5 2.58635 7.88676 1.76763
122 5 6.10825 3.39005 0.606511
102 4 4.93558 5.76998 1.15748
123 5 8.09563 5.81916 1.21379
107 4 7.87129 8.3307 2.56116
124 5 12.8653 6.88786 1.82805
103 4 10.6983 5.38516 0.87777
106 4 2.85147 13.0185 0.93352
128 5 3.01234 10.7108 2.15911
141 6 0.86322 11.4597 0.615869
113 4 1.20627 12.8773 2.89447
161 7 0.672431 9.49759 3.01332
143 6 4.61406 1.14282 35.2149
142 6 5.30514 8.49738 2.28648
100 4 5.65297 11.789 1.80238
145 6 10.3357 9.80287 3.02191
121 5 8.52041 11.878 1.93028
125 5 12.3351 11.5243 2.77018
115 4 11.4215 12.6509 35.3658
126 5 1.52657 4.1753 4.22896
117 4 3.09978 4.19568 6.07979
130 5 1.94301 1.30004 5.42446
177 7 12.8524 2.93854 6.08024
147 6 6.71324 13.0127 4.61135
131 5 4.85517 2.20457 5.1023
134 5 7.60818 2.5169 5.27828
112 4 5.78262 5.02505 5.62536
178 7 10.391 2.50942 4.94451
172 7 9.16837 4.5287 3.29846
175 7 12.4005 0.20956 5.27498
140 6 10.7544 12.0425 7.09229
30 2 8.53001 0.261166 5.96415
136 5 3.37631 6.61529 6.27087
152 6 0.257923 5.79245 6.31957
168 7 1.12581 7.0155 4.07248
165 7 3.80265 6.32662 3.73176
110 4 6.52263 6.0807 3.08795
156 6 8.38626 4.64179 6.12237
173 7 8.47198 6.95016 4.90675
170 7 5.99686 8.00659 5.01784
169 7 10.4003 7.06398 2.67999
132 5 12.2048 5.01519 3.59614
137 5 10.9263 5.08557 5.76401
150 6 11.5737 7.96797 4.96267
153 6 0.878065 8.9123 5.96729
111 4 1.87467 11.524 4.90063
164 7 3.15555 8.88892 4.43351
176 7 4.10949 12.776 6.35212
99 4 1.1775 12.6022 7.02484
138 5 2.88018 10.3599 7.20467
129 5 7.37545 10.3999 3.98586
114 4 4.82985 10.8816 4.40124
155 6 8.34045 11.3635 6.66184
162 7 5.79666 11.0396 6.79166
139 6 10.0199 12.063 4.58893
154 6 9.48786 9.50381 5.26186
157 6 12.1677 10.5711 5.2209
68 3 3.39209 2.87739 8.23451
79 3 2.76841 0.882888 9.29728
32 2 3.11073 1.31149 7.85769
61 3 1.02034 3.65997 10.8067
7 1 4.48202 12.7005 8.953
20 1 2.18966 2.60982 9.7835
39 2 4.87072 2.64501 7.74433
23 1 7.28255 3.69667 8.15261
76 3 5.26524 1.4616 9.00811
119 5 6.4602 0.738107 7.17546
9 1 8.50641 12.9569 9.00776
69 3 5.38353 4.009 8.06993
73 3 7.27925 3.80873 9.94702
95 3 8.9426 3.97409 11.7249
160 7 9.72945 2.26773 7.38617
8 1 12.2288 1.00977 9.08128
48 3 10.8145 3.35394 9.40074
67 3 11.8748 12.4255 9.29873
22 1 9.36981 2.2068 11.3247
89 3 9.54724 1.04969 9.81885
10 1 11.6647 4.66424 8.23331
12 1 1.54411 7.82115 10.809
44 3 1.53035 6.99539 7.35003
56 3 2.94641 8.34492 7.63651
42 2 3.43642 5.62392 9.272
57 3 2.70125 5.25094 8.0897
38 2 0.352494 5.33318 10.538
133 5 6.87696 6.54768 7.40134
94 3 4.55062 6.26566 8.37732
45 3 6.80762 6.28327 9.59161
27 1 5.76844 5.1062 9.90433
158 6 5.00089 8.5847 7.14788
18 1 9.77434 5.02978 10.1523
118 4 9.86731 6.89524 7.3728
92 3 0.169749 5.26382 8.98151
77 3 0.144802 7.53281 9.53017
135 5 12.5435 7.71161 7.5948
65 3 9.27496 7.19001 10.1019
54 3 1.01185 9.18579 8.10883
74 3 4.83393 8.19774 9.70912
96 3 1.2814 11.6292 8.84365
60 3 3.00633 10.215 9.49916
29 2 2.01408 11.3357 10.0125
174 7 7.64953 8.84771 7.16042
78 3 8.10863 11.3272 9.56395
31 2 7.14264 10.2687 9.06551
98 3 6.56899 9.76897 10.4692
6 1 4.773 10.1982 10.496
5 1 11.0707 10.0764 11.5383
14 1 12.9841 10.4626 8.78395
15 1 9.50388 10.0021 9.98092
88 3 11.3447 9.4644 9.39734
146 6 10.6852 9.59088 7.33386
25 1 10.6811 12.8162 10.4491
36 2 2.99182 1.46756 12.449
59 3 1.76363 1.27167 11.4065
71 3 2.66443 3.07899 12.8345
93 3 4.45794 1.55576 11.7441
86 3 3.06644 0.368253 13.3331
19 1 0.577582 13.0515 11.9762
26 1 4.54419 3.36779 12.0074
1 1 6.12782 0.78712 10.9079
41 2 7.46543 3.44508 11.3687
55 3 6.28769 4.15091 12.0302
63 3 7.38463 2.02569 11.5349
21 1 0.673344 2.54484 12.3105
47 3 11.8175 3.20687 12.512
40 2 11.6621 1.676 12.4058
53 3 12.749 0.957351 13.2721
66 3 12.3209 1.16138 10.8454
84 3 10.2214 1.08461 12.4277
62 3 2.69753 6.78257 9.7888
43 3 3.59145 4.51773 10.3233
4 1 2.42697 4.85251 12.2099
75 3 1.34075 6.10691 11.4642
52 3 12.6279 9.0424 11.7969
51 3 3.16507 5.54322 14.1594
34 2 3.97748 7.47049 10.6762
82 3 4.77455 6.11407 11.1341
37 2 4.02028 6.80314 14.2272
11 1 6.33951 5.8871 12.62
46 3 5.44796 6.88683 13.782
28 1 6.66445 7.84127 10.2419
90 3 7.53941 7.64268 11.8402
80 3 9.15018 9.40438 11.6847
24 1 11.1766 5.34769 12.6151
58 3 12.2371 5.52628 11.2424
17 1 12.0366 7.51911 11.0246
33 2 9.02936 7.68717 11.5732
72 3 10.2201 6.98866 12.3164
81 3 5.43705 12.2966 10.3423
3 1 3.38745 9.27462 13.1417
35 2 0.680426 10.1717 11.9253
91 3 1.4136 9.74484 10.682
2 1 3.67752 12.0695 12.4522
50 3 4.64706 10.453 12.2689
87 3 2.21604 12.2018 11.1997
64 3 1.73623 10.2715 13.1503
85 3 3.23631 8.0989 11.6728
13 1 6.83124 10.4255 12.0666
16 1 9.20163 12.7369 12.5707
97 3 7.64246 11.7207 12.4912
49 3 10.4524 11.6907 11.7774
70 3 12.9783 11.4607 11.3922
83 3 3.45922 8.09438 14.4882
ITEM: TIMESTEP
7700
ITEM: NUMBER OF ATOMS
178
ITEM: BOX BOUNDS pp pp pp
0.0000000000000000e+00 1.3168533823700001e+01
0.0000000000000000e+00 1.3168533823700001e+01
0.0000000000000000e+00 3.5381309593600001e+01
ITEM: ATOMS id type x y z
149 6 2.59002 2.12437 2.7093
163 7 4.23553 4.00182 3.42709
101 4 3.44198 3.39186 0.666933
108 4 3.75232 12.99 3.6175
151 6 12.8756 2.09681 3.47243
144 6 0.528551 3.63914 1.06846
104 4 8.53245 3.41538 0.796006
159 7 5.47696 1.49641 2.40573
166 7 7.03716 0.633918 0.464494
109 4 6.7271 3.68579 3.53852
171 7 8.3544 1.37097 2.77114
127 5 10.9364 3.03815 1.66983
167 7 0.408584 1.14975 0.939617
148 6 9.71079 1.14484 0.0777857
116 4 10.9224 0.709329 2.35048
105 4 2.13167 5.34016 1.76411
120 5 2.58785 7.82713 1.78002
122 5 6.00929 3.69965 0.978551
102 4 4.59921 5.95137 1.2868
123 5 8.16183 6.05031 1.39286
107 4 7.95895 8.59756 2.25363
124 5 12.9681 7.12267 1.76449
103 4 10.5161 5.40504 0.832845
106 4 2.99052 13.1357 1.04663
128 5 3.05558 10.7448 2.30997
141 6 1.02821 11.4398 0.722629
113 4 1.09962 12.6906 3.24479
161 7 0.556021 9.61767 3.02696
143 6 4.67173 1.32337 35.0719
142 6 5.17257 8.96172 2.47327
100 4 5.73407 11.9289 2.07918
145 6 10.5177 9.96214 2.87415
121 5 8.56196 12.0439 1.90735
125 5 12.2523 11.7076 2.61312
115 4 11.6359 12.2001 0.373204
126 5 1.43759 4.49405 4.03971
117 4 3.0746 3.945 5.84476
130 5 1.92049 1.5091 5.42418
177 7 12.8814 3.07977 5.9337
147 6 6.72087 12.8036 4.75032
131 5 4.95447 2.0668 5.28443
134 5 7.73113 2.15335 5.58785
112 4 5.70578 5.09399 5.58305
178 7 10.2521 2.58064 4.4626
172 7 9.21445 4.72106 3.44642
175 7 12.369 0.205642 5.13981
140 6 10.9915 11.9077 7.07878
30 2 8.73037 0.301115 6.18651
136 5 3.04232 6.62863 6.30698
152 6 0.399432 5.55404 6.32228
168 7 1.13861 7.05975 4.24048
165 7 3.81755 6.47403 3.95481
110 4 6.42787 6.20682 3.11755
156 6 8.35769 4.45264 6.10494
173 7 8.54043 6.91176 4.73087
170 7 5.87579 8.12136 5.08542
169 7 10.1667 7.23664 2.43252
132 5 12.1258 5.03172 3.31452
137 5 10.9579 5.03406 5.70648
150 6 11.6714 7.84335 4.98884
153 6 0.609743 8.88274 6.08549
111 4 1.90838 11.2887 5.01872
164 7 3.02342 8.83629 4.54922
176 7 3.96361 12.8223 6.19945
99 4 0.74598 12.2705 6.87016
138 5 3.08917 10.5137 7.21074
129 5 7.20651 10.2067 4.0394
114 4 4.6236 10.7265 4.69576
155 6 8.53139 11.2832 6.51892
162 7 5.89916 10.7921 6.82434
139 6 9.72095 12.2497 4.3814
154 6 9.66264 9.52271 5.13125
157 6 12.0443 10.7043 5.30394
68 3 2.99291 2.46407 8.23971
79 3 2.84673 0.450966 9.56536
32 2 2.65205 0.550885 8.03261
61 3 1.00114 3.83701 11.0208
7 1 3.75861 12.233 9.71085
20 1 2.45543 2.6058 10.0464
39 2 4.46639 2.8272 7.88253
23 1 6.73982 3.04345 7.90323
76 3 5.42246 1.84447 8.70293
119 5 6.33248 0.295664 7.42373
9 1 8.50521 12.7854 8.93642
69 3 5.12727 4.34882 7.92845
73 3 7.35218 3.2743 9.69116
95 3 8.93476 4.1804 11.1691
160 7 9.6551 2.35295 7.4047
8 1 12.3072 1.37873 8.41127
48 3 9.98478 3.4888 9.19441
67 3 12.5153 12.2198 8.90841
22 1 9.62241 2.29114 10.827
89 3 9.61245 0.774146 9.78241
10 1 11.3492 4.821 8.41193
12 1 1.51385 7.93678 10.8241
44 3 1.39477 6.92434 7.51647
56 3 2.63351 8.41654 7.69057
42 2 3.12229 5.53419 9.0543
57 3 2.66937 4.96361 7.63549
38 2 0.287647 5.17197 10.349
133 5 6.9434 6.41399 7.60025
94 3 4.26586 6.44287 8.10346
45 3 6.879 6.00867 9.64422
27 1 5.33899 4.8698 10.1243
158 6 4.80222 8.57879 7.36042
18 1 8.66587 4.82325 9.38716
118 4 9.62817 6.98422 7.25775
92 3 0.607482 5.10753 8.81782
77 3 12.9672 7.40177 9.75142
135 5 12.4373 7.3364 7.83962
65 3 9.33973 7.72909 10.0197
54 3 0.822941 9.46381 8.05395
74 3 4.77387 8.3878 9.46134
96 3 1.75543 11.3725 9.12267
60 3 3.46962 10.2462 9.4977
29 2 2.17772 10.615 10.2939
174 7 7.81971 8.70211 6.85678
78 3 8.31285 11.1748 9.81588
31 2 7.64249 10.1412 8.88982
98 3 6.88031 9.57513 10.294
6 1 5.03872 10.2471 10.3638
5 1 11.2591 10.533 12.1117
14 1 0.00158466 10.3419 9.18421
15 1 9.82168 10.1889 10.3904
88 3 11.3404 9.32501 9.4282
146 6 10.7241 9.27417 7.48246
25 1 11.1974 12.5791 9.91438
36 2 3.10121 1.74567 12.4149
59 3 1.96059 1.35861 11.4285
71 3 2.81907 3.18229 13.1459
93 3 4.47623 2.09568 11.6107
86 3 3.36173 0.466119 13.3601
19 1 0.397283 13.1033 11.8076
26 1 4.77926 3.4272 12.9482
1 1 6.14302 0.801521 11.0066
41 2 7.36541 3.33758 11.1484
55 3 6.2833 4.19467 12.0472
63 3 7.37259 1.9208 11.8589
21 1 0.936997 2.59713 12.4908
47 3 11.9675 3.41997 12.3099
40 2 11.8149 1.90779 11.8468
53 3 12.9835 1.25572 12.7536
66 3 12.2898 1.11284 10.5265
84 3 10.3238 1.59013 12.1041
62 3 2.68062 6.74999 9.89718
43 3 3.47094 4.33311 10.0389
4 1 2.39248 5.17504 12.3496
75 3 0.656548 6.13433 11.5942
52 3 12.488 8.73503 12.2703
51 3 3.97053 5.6748 13.2521
34 2 4.03917 7.54095 10.4661
82 3 4.90584 6.57323 11.127
37 2 4.39027 6.91193 14.1999
11 1 6.66272 6.30415 12.8581
46 3 5.8077 7.09951 14.4255
28 1 7.27961 7.81658 10.5637
90 3 7.95326 7.27518 12.2074
80 3 9.992 9.04333 11.9558
24 1 10.7859 4.75897 11.8012
58 3 11.8525 4.91669 10.0204
17 1 12.0607 7.66811 11.1762
33 2 9.43613 7.64214 11.5747
72 3 10.5611 6.67728 11.6897
81 3 5.36012 12.3682 10.7484
3 1 3.45649 9.49564 12.9913
35 2 0.448012 9.88804 12.2242
91 3 0.987841 9.70457 10.75
2 1 4.24967 12.3102 12.3308
50 3 5.26078 10.3314 12.6539
87 3 2.86259 11.3573 11.4097
64 3 1.64285 10.0678 13.0958
85 3 3.10269 8.57265 11.3979
13 1 6.91893 11.0306 12.4637
16 1 8.93637 0.103059 11.2889
97 3 7.65248 12.6101 12.4324
49 3 10.3529 11.781 11.1842
70 3 12.8624 11.2796 11.7971
83 3 3.4454 8.06678 14.206
ITEM: TIMESTEP
7800
ITEM: NUMBER OF ATOMS
178
ITEM: BOX BOUNDS pp pp pp
0.0000000000000000e+00 1.3168533823700001e+01
0.0000000000000000e+00 1.3168533823700001e+01
0.0000000000000000e+00 3.5381309593600001e+01
ITEM: ATOMS id type x y z
149 6 2.7659 2.21582 2.696
163 7 4.38929 4.09237 3.32807
101 4 3.46364 3.41602 0.602017
108 4 3.88254 12.9866 3.85866
151 6 13.0867 2.17192 3.44592
144 6 0.616028 3.66326 0.769931
104 4 8.59667 3.33009 0.981813
159 7 5.40767 1.57871 2.54086
166 7 7.09231 1.02026 0.359856
109 4 7.02723 3.65963 3.74349
171 7 8.18874 1.48584 2.73985
127 5 10.9631 2.96453 1.55814
167 7 0.394124 0.902207 0.980838
148 6 9.45764 0.761298 35.3436
116 4 11.0163 0.750247 2.10062
105 4 2.14164 5.56228 1.40422
120 5 2.62473 8.08168 2.01535
122 5 6.19989 3.83117 1.2376
102 4 4.71462 6.26973 1.26561
123 5 8.06789 6.07336 1.05911
107 4 7.69738 8.31835 2.46833
124 5 12.806 7.28942 2.01835
103 4 10.5862 5.36058 0.849987
106 4 3.35432 0.0370985 1.02984
128 5 2.97182 10.634 2.46249
141 6 0.850134 11.4793 0.729676
113 4 1.47423 13.0074 3.04323
161 7 0.48592 9.4789 3.21529
143 6 4.88529 1.51548 35.26
142 6 5.196 8.99184 2.55991
100 4 5.70616 11.7621 2.29894
145 6 10.5094 9.80876 2.77464
121 5 8.56186 12.0912 1.58715
125 5 12.3824 12.1361 2.7841
115 4 11.4139 12.3744 0.249348
126 5 1.54635 4.46742 3.66997
117 4 2.9045 4.06383 5.67124
130 5 1.82604 1.0842 5.62885
177 7 12.7687 3.24859 5.90447
147 6 6.89641 12.7565 4.66462
131 5 4.87241 1.97049 5.187
134 5 7.74684 1.59969 5.60231
112 4 5.50523 5.07769 5.55155
178 7 10.194 2.39798 4.46461
172 7 9.43657 4.68816 3.2896
175 7 12.0873 0.56744 5.38024
140 6 11.1934 11.8427 7.02479
30 2 9.35106 0.17649 6.30807
136 5 2.96134 6.70735 6.47074
152 6 0.549395 5.73188 6.3577
168 7 1.08047 7.03364 4.05207
165 7 3.6703 6.38498 3.94632
110 4 6.39611 6.20251 3.21755
156 6 8.32142 4.46436 5.93429
173 7 8.34048 6.89373 4.72422
170 7 5.59871 8.07386 5.04287
169 7 10.1876 7.31804 2.55677
132 5 12.0375 5.09957 3.33152
137 5 10.7794 4.90786 5.95705
150 6 11.5972 7.70169 4.78313
153 6 0.111507 9.15769 6.36278
111 4 1.67905 11.5046 4.91119
164 7 2.89819 8.9591 4.77475
176 7 3.97566 12.7488 6.51796
99 4 0.973258 12.0321 6.96721
138 5 2.95685 10.3579 7.33839
129 5 7.45467 10.2748 4.11697
114 4 4.73883 10.6696 4.73125
155 6 8.80614 11.2084 6.61472
162 7 6.22856 10.8577 6.84506
139 6 9.82533 12.1091 4.29833
154 6 9.66621 9.32579 5.20414
157 6 11.9369 10.7633 4.99252
68 3 3.15963 2.25196 8.35985
79 3 2.47872 0.0675864 9.49251
32 2 2.54713 0.764382 8.27779
61 3 1.23545 3.5832 10.6024
7 1 3.99147 12.1392 9.284
20 1 3.15922 2.79686 10.2093
39 2 4.77217 2.08393 8.00531
23 1 7.03236 2.73539 8.46562
76 3 5.54408 1.28804 8.95767
119 5 6.22724 0.163005 7.37855
9 1 8.35716 12.6573 8.73784
69 3 5.09426 3.51246 8.02833
73 3 6.81819 3.57717 9.98465
95 3 8.72548 4.27329 11.6571
160 7 9.79086 2.53503 7.2081
8 1 12.9292 1.97515 8.64333
48 3 9.72148 2.99692 9.41345
67 3 11.9951 12.4587 8.87017
22 1 9.54261 1.82688 10.992
89 3 9.19995 0.362545 9.89583
10 1 11.248 4.28746 8.51613
12 1 1.19434 7.7523 10.3159
44 3 1.09416 7.32235 7.57769
56 3 2.82702 8.39488 8.05033
42 2 3.31455 5.40147 9.23134
57 3 2.66123 4.793 8.15445
38 2 0.306048 4.95943 10.3204
133 5 6.76063 6.28684 7.10255
94 3 4.39905 6.2724 8.34918
45 3 7.07514 6.01336 9.14179
27 1 5.54028 4.873 9.87106
158 6 5.00345 8.57128 7.52294
18 1 8.61681 4.71229 9.52348
118 4 9.50625 6.84144 7.08341
92 3 0.653224 5.81095 9.06953
77 3 12.5097 7.51965 9.84664
135 5 12.1231 7.07658 7.73306
65 3 9.48724 8.0372 9.74914
54 3 0.69439 9.11623 8.43151
74 3 5.05904 8.14008 9.65908
96 3 1.32966 11.0711 9.12133
60 3 3.46214 10.1702 9.53935
29 2 2.28525 10.677 10.3551
174 7 7.56393 8.70435 6.87719
78 3 7.81597 11.2507 9.81286
31 2 7.23585 10.0577 8.98181
98 3 6.82256 9.32338 10.345
6 1 5.09253 9.51306 10.9324
5 1 11.2921 10.25 11.7609
14 1 12.8862 10.8546 9.08315
15 1 9.50987 10.1029 10.2121
88 3 11.2257 10.0367 9.42149
146 6 10.886 9.36607 7.41401
25 1 10.7062 12.7009 10.1712
36 2 3.65841 1.78161 12.4229
59 3 2.42362 1.23856 11.6464
71 3 2.97176 2.947 13.0539
93 3 4.64116 2.44444 11.2906
86 3 4.32658 0.504492 13.0629
19 1 0.869347 13.0045 11.8166
26 1 4.48214 4.29705 12.554
1 1 6.17589 0.453185 11.7899
41 2 7.23349 3.32997 11.4063
55 3 6.11694 4.30831 12.303
63 3 7.23026 2.09132 12.2026
21 1 1.27314 2.43937 12.5236
47 3 11.8013 3.21921 12.2577
40 2 11.8759 1.75206 11.8664
53 3 13.125 1.14823 12.5836
66 3 12.4257 1.54431 10.2961
84 3 10.6391 0.930056 12.1288
62 3 2.75588 6.74386 9.9772
43 3 3.80505 4.5357 10.298
4 1 2.17861 5.55573 12.1707
75 3 0.653875 5.89463 11.6317
52 3 12.6321 9.07532 12.4589
51 3 3.37572 5.46152 13.3175
34 2 4.25799 7.31658 10.5756
82 3 5.31754 6.45736 11.2115
37 2 4.47258 6.6348 13.7294
11 1 7.20106 6.0856 12.7879
46 3 5.93185 6.43231 13.7687
28 1 7.22282 7.50707 10.0596
90 3 7.85016 7.24573 11.5561
80 3 9.92548 9.14192 11.6884
24 1 10.7161 4.69759 11.5804
58 3 11.9935 4.71586 10.1201
17 1 12.0578 7.16849 11.3984
33 2 9.41852 7.75782 11.2084
72 3 10.3215 6.7086 11.7931
81 3 5.24688 12.6841 10.5852
3 1 3.16267 9.18422 13.0287
35 2 0.613743 10.1173 12.4592
91 3 1.43337 9.58528 11.2251
2 1 4.39347 11.9344 12.1165
50 3 5.42712 10.3842 12.4469
87 3 2.78997 11.6503 11.3572
64 3 1.53669 10.544 13.6585
85 3 3.66719 8.33388 11.6148
13 1 6.84615 10.9989 11.2118
16 1 9.17845 12.611 12.4582
97 3 7.46068 12.1235 12.2606
49 3 10.2579 11.598 11.3258
70 3 0.264527 11.4409 11.608
83 3 3.65798 7.82807 14.1964
ITEM: TIMESTEP
7900
ITEM: NUMBER OF ATOMS
178
ITEM: BOX BOUNDS pp pp pp
0.0000000000000000e+00 1.3168533823700001e+01
0.0000000000000000e+00 1.3168533823700001e+01
0.0000000000000000e+00 3.5381309593600001e+01
ITEM: ATOMS id type x y z
149 6 2.60389 2.03381 2.7379
163 7 4.40625 4.09206 3.09247
101 4 3.60065 3.84074 0.861966
108 4 4.24088 13.041 3.93984
151 6 12.8012 2.10951 3.25638
144 6 0.602588 3.62982 1.05186
104 4 8.84527 3.38719 0.489983
159 7 5.50393 1.53159 2.47451
166 7 7.15131 1.12095 0.464479
109 4 7.03918 3.22255 3.53358
171 7 8.52114 1.3585 2.7133
127 5 11.1504 3.05902 1.20757
167 7 0.256283 1.0299 0.911646
148 6 9.50827 0.785494 35.2228
116 4 10.7857 0.472909 2.29123
105 4 2.27258 5.81808 1.44694
120 5 2.33625 8.22267 1.88355
122 5 6.372 3.69924 1.04686
102 4 5.04897 6.39137 1.28023
123 5 8.09207 5.89599 1.2271
107 4 7.61833 8.18426 2.36676
124 5 12.7272 7.0896 1.69549
103 4 10.8818 5.43928 0.678259
106 4 3.3336 12.9377 1.00902
128 5 2.96156 10.7951 2.50199
141 6 0.71663 11.3863 0.741817
113 4 1.62645 13.1188 2.86965
161 7 0.393762 9.65609 3.21949
143 6 4.56197 1.80749 35.3529
142 6 5.03421 8.70191 2.44606
100 4 5.7925 11.7804 1.98672
145 6 10.4595 9.83482 2.95577
121 5 8.30266 12.0212 2.10253
125 5 12.6327 12.1846 2.99787
115 4 11.5335 12.5369 0.347771
126 5 1.57845 4.3945 3.61026
117 4 2.44688 4.0164 5.93951
130 5 1.89515 1.4805 5.56475
177 7 12.8456 3.22963 5.85969
147 6 7.02976 12.7183 4.67665
131 5 4.71769 2.1656 5.22686
134 5 7.85358 1.91892 5.90115
112 4 5.11856 4.71416 5.71042
178 7 10.1968 2.68288 4.40982
172 7 9.40414 4.68853 3.20231
175 7 12.002 0.627691 5.49756
140 6 11.4035 11.8978 7.21321
30 2 9.31724 0.224605 6.25166
136 5 3.39157 6.67214 6.41884
152 6 0.389603 5.82281 6.04681
168 7 1.07501 7.12705 4.14424
165 7 3.60785 6.55355 3.77722
110 4 6.36417 5.83893 3.34848
156 6 8.23575 4.28815 5.83847
173 7 8.2215 6.70609 4.91697
170 7 5.6486 7.92806 5.02676
169 7 10.0865 7.11969 2.56915
132 5 12.2711 4.90265 3.34853
137 5 10.8029 5.15203 5.74967
150 6 11.7161 7.88683 4.95756
153 6 0.00157239 9.45031 6.38306
111 4 1.83011 11.5673 5.16349
164 7 2.73086 9.01589 4.86578
176 7 3.98558 12.499 6.52247
99 4 0.930516 12.1637 7.08902
138 5 3.05419 10.277 7.36087
129 5 7.34145 9.96954 4.01458
114 4 4.61943 10.5089 4.6293
155 6 8.93757 11.1235 6.43391
162 7 6.04394 11.0508 6.81946
139 6 9.83511 12.0284 4.3196
154 6 9.67274 9.11935 5.25465
157 6 11.7653 10.7829 5.00928
68 3 3.05032 2.17539 8.54288
79 3 2.00549 0.322348 9.42872
32 2 2.57203 0.725976 7.95939
61 3 1.04534 4.14314 10.7454
7 1 4.0964 12.2766 10.001
20 1 2.66018 2.60421 10.3896
39 2 4.87535 2.31756 7.90335
23 1 7.09572 3.03022 8.63567
76 3 5.9742 1.51027 8.97795
119 5 6.29452 0.511489 7.19842
9 1 8.88428 12.9626 8.89631
69 3 4.94306 3.77958 7.849
73 3 6.97821 3.55688 10.388
95 3 9.08272 3.95195 11.7755
160 7 10.288 2.52043 7.15738
8 1 13.1089 1.39525 8.45639
48 3 10.1745 3.41648 9.24923
67 3 12.5624 12.1909 9.10628
22 1 9.53651 2.21986 10.9866
89 3 8.67774 1.01289 10.0771
10 1 11.0766 4.74903 8.67514
12 1 1.10506 7.47214 10.0062
44 3 1.14176 7.12755 7.41989
56 3 2.73163 8.41155 8.1835
42 2 3.22308 5.41996 9.14156
57 3 2.34022 5.35945 7.96926
38 2 0.118495 5.20924 10.4884
133 5 6.57231 6.29489 7.11082
94 3 4.49065 6.23638 8.46932
45 3 7.08562 5.71218 9.0279
27 1 5.53977 4.59976 9.47952
158 6 5.07029 8.77743 7.46616
18 1 8.97928 5.01795 10.238
118 4 9.35609 6.93344 7.31026
92 3 0.178299 5.83822 9.02693
77 3 12.1312 7.57978 9.66085
135 5 12.0517 7.09407 7.67245
65 3 9.58755 6.63335 9.65171
54 3 0.164237 8.74575 8.31522
74 3 4.88439 7.94225 9.73753
96 3 1.69923 10.6622 8.96344
60 3 3.89741 10.2454 9.74309
29 2 2.47113 10.2637 10.2567
174 7 7.62918 8.83526 6.92835
78 3 8.19923 11.4267 9.58982
31 2 7.27382 10.492 8.84119
98 3 6.78226 9.60013 10.1058
6 1 5.08817 9.5894 10.9355
5 1 11.0393 10.0309 11.8519
14 1 12.9961 10.3919 9.34211
15 1 9.6843 10.4268 9.78251
88 3 11.2512 9.76051 9.49903
146 6 10.7307 9.38542 7.51605
25 1 11.2657 12.7526 10.1906
36 2 4.18767 1.67268 12.3507
59 3 2.80075 0.955471 12.0257
71 3 3.64381 2.89595 12.997
93 3 4.594 2.26257 10.9843
86 3 5.0483 0.657979 12.7953
19 1 0.810616 12.7451 11.3124
26 1 4.16444 4.33397 12.2333
1 1 6.6716 0.793401 11.5176
41 2 7.65433 3.38448 11.8435
55 3 6.55919 4.13538 12.6415
63 3 8.053 1.9562 12.1773
21 1 1.77766 2.17628 13.3109
47 3 11.7089 3.20236 12.6008
40 2 12.1683 1.87495 11.8433
53 3 0.164112 1.17684 12.3807
66 3 12.4494 1.74315 10.242
84 3 10.9362 0.910918 12.0359
62 3 2.81057 6.58121 10.1828
43 3 3.54723 4.26019 10.0162
4 1 2.13003 6.67004 12.2815
75 3 0.658505 6.36967 11.3585
52 3 12.5699 8.76013 12.2952
51 3 3.33314 5.80143 13.4103
34 2 4.12134 6.8716 10.6198
82 3 4.9879 5.66369 11.1289
37 2 4.18793 6.96197 13.9644
11 1 6.25176 5.90804 12.6373
46 3 5.79912 6.79782 14.1543
28 1 6.98222 7.53401 9.86062
90 3 7.89766 6.61026 11.6078
80 3 9.38128 8.84362 11.067
24 1 10.7135 4.80244 12.3609
58 3 11.7334 4.86275 10.4368
17 1 12.1459 7.31629 11.4896
33 2 9.35055 7.22225 11.1197
72 3 10.3542 6.38884 11.8567
81 3 5.72147 12.2865 10.8085
3 1 3.53839 9.15422 13.3827
35 2 0.68806 9.66696 12.1498
91 3 1.50851 9.11033 10.7708
2 1 4.49622 11.9066 12.4508
50 3 4.72376 9.98662 12.7588
87 3 2.69454 11.7812 11.2173
64 3 1.60465 9.79345 13.2976
85 3 3.92856 7.58557 12.1116
13 1 7.14381 11.015 11.5025
16 1 9.28475 13.0666 12.2355
97 3 7.73181 12.2218 12.6792
49 3 10.257 11.6353 11.109
70 3 0.216445 10.9738 11.5094
83 3 3.58386 8.04537 14.7936
ITEM: TIMESTEP
8000
ITEM: NUMBER OF ATOMS
178
ITEM: BOX BOUNDS pp pp pp
0.0000000000000000e+00 1.3168533823700001e+01
0.0000000000000000e+00 1.3168533823700001e+01
0.0000000000000000e+00 3.5381309593600001e+01
ITEM: ATOMS id type x y z
149 6 2.66612 1.97513 2.45345
163 7 4.28801 3.96654 3.23768
101 4 3.39746 4.19782 0.793176
144 6 0.648904 3.91054 1.17107
167 7 0.472878 1.10959 0.892031
104 4 8.65624 3.33395 0.529862
159 7 5.37822 1.37844 2.36479
166 7 6.91319 0.850162 0.626423
109 4 6.91113 3.21312 3.39786
171 7 8.67053 1.65389 2.51028
122 5 6.18241 3.73875 0.99861
151 6 12.92 1.91898 3.44633
127 5 10.9703 2.85346 1.63727
116 4 10.8698 0.434266 2.33678
105 4 2.05971 5.82865 1.67023
120 5 2.24651 8.32073 1.67781
102 4 5.17137 6.18333 1.38661
123 5 8.2596 5.94291 1.0993
107 4 7.37789 7.71877 2.63016
124 5 12.8411 7.01626 1.79394
103 4 10.8016 5.23089 1.02251
172 7 9.08423 4.6531 3.05046
169 7 10.1907 7.02 2.84163
132 5 12.0149 5.0196 3.39529
106 4 3.25268 12.9487 1.04241
128 5 3.13384 10.5629 2.28029
141 6 0.869882 11.3011 0.828869
113 4 1.58337 12.7625 2.78434
161 7 0.375681 9.80548 3.15004
142 6 4.97207 8.80513 2.48276
100 4 5.58007 11.6814 2.25788
121 5 8.18731 12.2152 1.71254
145 6 10.3863 9.97849 3.0861
125 5 12.3377 12.0727 3.15288
115 4 11.864 12.4237 0.456986
117 4 2.78217 4.13677 6.02061
130 5 1.84138 1.30475 5.22265
131 5 4.8453 2.04504 5.0585
134 5 8.17711 1.77817 5.5187
156 6 8.14921 4.22526 5.94518
177 7 12.8135 3.26971 5.80132
178 7 10.4116 2.68374 4.53364
175 7 12.1549 0.549273 5.53845
30 2 9.89821 0.379546 6.19692
160 7 10.5871 2.48855 7.06908
126 5 1.73226 4.43752 3.85508
136 5 2.93835 6.69548 6.25956
152 6 0.203837 5.76821 5.98756
168 7 1.08615 7.17678 3.8324
165 7 3.75351 6.41672 3.76772
112 4 5.21773 4.76955 5.66536
110 4 6.57805 5.44068 3.75245
173 7 8.45685 6.93195 4.90255
170 7 5.69596 7.7676 5.10411
174 7 7.43531 8.76001 7.04591
137 5 10.6748 5.33532 5.68635
150 6 11.8674 8.18847 4.62025
108 4 3.95106 12.8482 3.93436
153 6 0.416107 9.52827 6.26491
111 4 1.89331 11.4468 4.97741
164 7 2.92767 8.89501 4.67405
176 7 3.9389 12.9374 6.47346
99 4 0.910165 12.4026 6.83899
147 6 7.05289 12.7695 4.49094
129 5 7.36963 9.99035 3.98569
114 4 4.79783 10.5757 4.7095
155 6 8.72068 11.1009 6.41434
162 7 6.11753 11.1604 6.62514
139 6 9.81358 12.096 4.37855
154 6 9.65111 9.03696 5.35291
157 6 11.7138 10.8713 5.43506
68 3 3.33905 2.55131 8.39764
79 3 1.76388 1.21169 9.32362
32 2 2.6999 1.05811 8.04161
20 1 2.01659 3.26537 9.6754
39 2 5.06634 2.64196 7.91295
23 1 7.9069 2.31945 8.54708
76 3 5.90579 1.88997 8.73924
119 5 6.16042 0.657627 7.16228
69 3 5.05451 4.11607 7.92413
73 3 7.60446 3.12678 10.155
1 1 5.95646 0.971718 10.4452
8 1 12.9865 1.61634 8.46524
48 3 10.0274 3.18756 9.09366
89 3 8.90523 0.606904 10.1281
66 3 12.4207 1.89047 10.1636
12 1 1.34821 7.36348 9.32202
44 3 1.00688 6.6885 7.49692
56 3 2.74876 8.21491 7.77507
42 2 3.37172 5.46136 9.33694
57 3 2.73979 4.96267 8.04953
94 3 4.3733 6.40945 8.36724
92 3 0.984554 4.95328 9.50707
62 3 2.82437 6.84641 9.96079
43 3 3.62243 4.42658 10.3369
34 2 4.29551 7.04423 10.4821
133 5 6.4548 6.26926 7.09619
45 3 6.5339 5.67643 9.42163
27 1 5.42358 4.46752 9.90572
18 1 8.2558 4.64701 9.46829
74 3 5.39576 7.90576 9.90343
28 1 7.52368 8.33432 10.0296
10 1 11.3949 4.88715 8.83835
118 4 9.1615 6.81007 7.52514
77 3 12.7611 7.22697 9.56282
135 5 12.2105 7.6135 7.47519
65 3 9.54746 6.01308 9.86287
80 3 9.53247 8.5025 10.5285
138 5 3.02325 10.4609 7.15891
54 3 0.691775 9.03583 8.12897
96 3 1.79472 10.9293 8.8616
60 3 3.72558 9.70926 9.26135
29 2 2.55957 10.3376 10.0912
7 1 5.26678 11.0731 9.37719
9 1 8.59217 12.9411 8.66631
158 6 4.96098 8.81995 7.43582
78 3 7.99212 11.5759 9.51629
31 2 7.50166 10.5917 8.51737
98 3 7.04299 9.89148 10.4363
140 6 11.0785 11.9218 7.48631
67 3 12.1244 12.5885 9.01473
14 1 13.1202 10.6477 9.45887
15 1 9.26254 10.6117 10.0819
88 3 11.149 10.0611 9.34479
146 6 10.5285 9.47783 7.53805
25 1 10.9233 12.9859 10.2969
61 3 1.16709 3.34203 11.4996
36 2 4.38353 1.69334 12.5304
59 3 2.94944 0.736493 11.874
71 3 3.53151 2.49084 13.4995
26 1 4.27413 4.23549 12.3851
21 1 1.62945 2.19017 12.5068
53 3 0.0311704 0.671894 12.1277
93 3 4.96778 2.4919 11.2477
86 3 5.40331 0.650886 12.9778
41 2 8.11042 3.24212 12.1237
55 3 7.46391 4.26292 12.9316
63 3 8.21583 1.7216 12.1986
95 3 9.47855 3.79918 11.7775
22 1 9.42638 2.22592 10.6531
47 3 12.1844 2.87997 12.7925
40 2 12.2297 1.70017 11.6274
84 3 10.8854 0.988314 11.7468
24 1 10.8798 4.12476 12.5928
16 1 9.25717 0.109566 12.0892
38 2 0.39306 4.64263 10.8592
4 1 1.66194 6.98162 12.6877
75 3 0.645815 5.88285 11.8567
51 3 3.28397 5.6358 13.6064
37 2 4.09608 6.76284 14.0196
85 3 3.86717 8.23126 11.7303
82 3 4.45515 5.87907 11.4416
11 1 6.90162 5.93185 12.9986
46 3 5.62536 6.88857 13.8355
90 3 7.73185 6.73943 11.6562
52 3 12.3344 8.53282 11.896
58 3 11.9564 4.66166 10.7563
17 1 11.7291 6.74361 11.2176
33 2 9.12327 6.94229 11.0361
72 3 10.0395 6.69418 12.3016
19 1 1.20586 12.9942 10.9956
3 1 3.60334 9.21648 13.7081
35 2 0.530621 9.45603 12.1364
91 3 1.62936 9.16437 10.719
2 1 3.99488 12.0347 12.0329
87 3 2.81554 11.3137 11.0978
64 3 1.42971 8.95605 13.2042
6 1 5.47092 9.25825 11.2018
81 3 5.45377 12.1671 10.6592
50 3 4.9015 10.5836 12.778
13 1 6.58652 11.4819 11.8141
97 3 8.00815 12.0003 12.5769
5 1 11.3027 9.9865 11.4998
49 3 10.3067 11.345 11.5043
70 3 13.0266 10.8171 11.5199
83 3 3.61687 7.86902 14.769
143 6 4.12511 1.88375 35.3331
148 6 9.73678 0.870384 35.3655
ITEM: TIMESTEP
8100
ITEM: NUMBER OF ATOMS
178
ITEM: BOX BOUNDS pp pp pp
0.0000000000000000e+00 1.3168533823700001e+01
0.0000000000000000e+00 1.3168533823700001e+01
0.0000000000000000e+00 3.5381309593600001e+01
ITEM: ATOMS id type x y z
149 6 2.54118 2.15603 2.28825
163 7 4.24981 3.77846 3.21964
101 4 3.32535 4.00376 0.760583
144 6 0.270876 3.95132 1.08434
167 7 0.469404 1.01293 0.847411
104 4 8.59478 3.32541 0.573501
159 7 5.23927 1.2163 2.24044
166 7 6.87705 0.891861 0.249225
109 4 6.66192 2.97232 3.74412
171 7 8.35645 1.66589 2.52729
122 5 6.10396 3.63359 1.15645
151 6 0.0293619 2.05735 3.48837
127 5 10.9758 2.99633 1.55246
116 4 11.093 0.655169 2.29168
105 4 2.07679 5.72252 1.53104
120 5 2.79949 8.13086 1.72423
102 4 5.08367 6.36826 1.39748
123 5 8.212 5.93448 1.01458
107 4 7.64934 7.6893 2.44921
124 5 12.5414 7.1837 1.75417
103 4 10.4662 5.27147 0.977564
172 7 9.08903 4.46744 3.45161
169 7 10.097 7.04925 2.94732
132 5 12.2135 4.98037 3.40895
106 4 3.40044 12.8703 0.731378
128 5 3.11471 10.7511 2.30559
141 6 0.957984 11.1738 0.61852
113 4 1.53455 12.8261 2.87973
161 7 0.691415 9.57509 3.03244
142 6 5.37653 8.75233 2.55823
100 4 5.9093 11.3057 2.04649
121 5 8.5425 12.2508 1.90821
145 6 10.2972 10.1785 3.21631
125 5 12.3698 11.9268 3.09658
115 4 11.7347 12.4805 0.373828
117 4 2.84675 3.74773 5.95921
130 5 2.02073 1.43416 5.46178
131 5 4.89426 1.9239 5.27286
134 5 8.28258 1.60887 5.432
156 6 8.10816 4.2451 5.84656
177 7 12.8357 3.33507 5.90856
178 7 10.6063 2.63514 4.36676
175 7 12.1528 0.467861 5.6316
30 2 9.91013 0.461725 6.20641
160 7 10.2472 2.57543 7.18458
126 5 1.59032 4.36787 3.92771
136 5 2.76866 6.5869 6.22891
152 6 0.151709 6.05443 6.0923
168 7 1.1992 7.0726 4.01414
165 7 3.74523 6.22594 3.76876
112 4 5.35201 4.84525 5.73725
110 4 6.43865 5.4999 3.61064
173 7 8.22729 6.73234 5.25976
170 7 5.61594 7.81011 5.08813
174 7 7.47196 8.72766 6.91271
137 5 10.6079 5.27763 5.76518
150 6 11.8723 8.32226 4.52113
108 4 3.90481 12.8385 3.62586
153 6 0.613654 9.30907 5.9677
111 4 1.79981 11.6259 4.85195
164 7 2.99481 8.82532 4.36959
176 7 3.93416 12.7582 6.44702
99 4 0.988256 12.2835 7.05841
147 6 6.73553 12.8561 4.21393
129 5 7.54242 9.83901 4.02554
114 4 4.79805 10.7207 4.66412
155 6 8.53537 11.3107 6.14247
162 7 5.97367 11.339 6.77935
139 6 9.78219 12.2609 4.4741
154 6 9.75379 9.14003 5.58103
157 6 11.8169 10.9861 5.53755
68 3 3.60856 2.42142 8.61672
79 3 1.6355 0.984877 9.2338
32 2 2.92695 0.965377 8.39764
20 1 2.00683 3.27641 8.95683
39 2 5.20289 2.8895 7.82097
23 1 8.23815 3.99684 9.03441
76 3 6.03081 2.01413 8.82367
119 5 6.46962 0.691746 6.95031
69 3 5.31635 4.35533 8.2571
73 3 7.70592 3.17129 10.598
1 1 6.74936 1.15632 11.3194
8 1 12.4119 0.905759 8.8783
48 3 9.94546 3.46046 9.18432
89 3 9.14846 0.697644 10.0089
66 3 12.0812 2.16815 10.4528
12 1 0.982902 6.57952 9.97007
44 3 1.1042 7.25839 7.57282
56 3 2.92515 8.47801 7.44975
42 2 3.49456 5.55715 9.03319
57 3 2.65973 4.83845 8.0127
94 3 4.19067 6.68239 8.03923
92 3 1.08661 4.75319 9.50115
62 3 2.81644 6.73386 9.79226
43 3 3.93457 4.69067 10.1751
34 2 4.17768 7.37976 10.4578
133 5 6.77702 6.16635 7.45238
45 3 7.28897 5.31534 9.58204
27 1 5.59707 4.23235 10.2717
18 1 9.05538 5.21836 11.0563
74 3 5.13138 8.20844 9.40801
28 1 7.00003 7.76404 10.2634
10 1 12.0019 4.95687 9.03769
118 4 9.30995 6.71479 7.57602
77 3 12.5451 6.84952 9.60314
135 5 11.9825 7.58855 7.2177
65 3 9.79542 6.38747 9.53962
80 3 9.82998 8.72831 10.7374
138 5 3.17967 10.4603 7.22884
54 3 0.601718 9.1583 8.15769
96 3 1.46824 11.2561 9.38187
60 3 3.56437 10.1098 9.47869
29 2 2.41525 10.2776 10.4028
7 1 5.17007 11.3045 9.26596
9 1 8.34582 12.7415 8.75494
158 6 4.93378 8.77724 7.49416
78 3 7.84659 11.3128 9.63622
31 2 7.61652 10.3268 8.36648
98 3 6.50518 9.69419 10.703
140 6 10.912 12.0102 7.56832
67 3 12.5096 12.4108 9.26235
14 1 13.0984 10.4539 8.82868
15 1 9.06048 10.3289 10.4913
88 3 11.1835 10.2606 9.4882
146 6 10.4894 9.63649 7.81971
25 1 11.3892 12.214 10.8591
61 3 1.52243 3.64073 11.6148
36 2 4.27142 1.82229 12.4874
59 3 2.9694 1.10082 11.4485
71 3 3.34614 2.60475 13.2133
26 1 3.59726 4.21472 11.9768
21 1 1.52285 2.05657 12.439
53 3 0.306009 0.708513 12.0033
93 3 5.21916 2.46075 11.539
86 3 5.03134 0.785922 13.2938
41 2 7.9944 3.10075 12.1479
55 3 7.29075 4.22928 12.7559
63 3 7.81349 1.55843 12.6865
95 3 9.55739 3.38939 12.1688
22 1 10.139 2.09838 10.421
47 3 12.5538 2.67451 12.9578
40 2 12.0971 1.63099 12.0586
84 3 11.0043 0.402496 11.8922
24 1 11.2767 4.14705 12.5621
16 1 9.12807 12.7524 12.0637
38 2 0.579168 4.61898 11.0648
4 1 1.69651 7.1807 13.222
75 3 0.801824 5.96371 12.0508
51 3 3.25685 6.01822 13.5123
37 2 4.3282 6.94929 14.062
85 3 3.58534 8.17986 11.5112
82 3 5.46141 6.47119 11.2321
11 1 6.64926 5.69469 12.7009
46 3 5.68892 6.30608 14.0483
90 3 8.21282 6.79119 11.5193
52 3 12.4916 8.6536 11.2954
58 3 12.0301 4.62197 11.0219
17 1 12.1355 6.66527 11.4391
33 2 9.52435 7.18244 10.8782
72 3 10.322 6.5207 11.9636
19 1 0.939081 12.4593 10.701
3 1 3.18498 10.0066 13.4502
35 2 0.671582 9.3015 11.589
91 3 1.5726 8.78321 10.3293
2 1 3.8704 12.8866 11.2135
87 3 2.59715 11.248 11.5695
64 3 1.33919 8.99969 12.9268
6 1 5.41167 9.86003 12.0509
81 3 5.3651 12.859 10.4963
50 3 4.60584 11.1029 13.0468
13 1 6.26915 12.5047 13.3757
97 3 7.91118 11.8833 12.9601
5 1 11.3145 9.88563 11.2913
49 3 10.0012 11.1498 11.8109
70 3 12.9564 10.9486 11.2604
83 3 3.84806 8.33777 14.1402
143 6 4.18256 1.93546 35.2257
148 6 9.56859 0.914412 0.0143054
ITEM: TIMESTEP
8200
ITEM: NUMBER OF ATOMS
178
ITEM: BOX BOUNDS pp pp pp
0.0000000000000000e+00 1.3168533823700001e+01
0.0000000000000000e+00 1.3168533823700001e+01
0.0000000000000000e+00 3.5381309593600001e+01
ITEM: ATOMS id type x y z
149 6 2.51256 2.02176 2.20285
163 7 4.25872 3.80431 3.2131
101 4 3.63659 4.01216 0.707295
144 6 0.137736 3.85371 0.970011
167 7 0.153056 0.918776 0.772009
104 4 8.7259 3.33922 0.39491
159 7 5.4172 1.28538 2.12155
166 7 6.97925 0.907216 0.0606282
109 4 6.57606 3.12659 3.93733
171 7 8.30414 1.51508 2.62146
122 5 6.30145 3.52855 1.19678
151 6 13.0202 2.03606 3.28609
127 5 10.9798 3.05506 1.46127
116 4 10.8536 0.659612 2.28228
105 4 1.87518 5.48899 1.61406
120 5 2.71593 7.6963 1.69254
102 4 4.94325 5.99408 1.20633
123 5 8.16258 5.76805 1.26956
107 4 7.7834 8.13343 2.57994
124 5 12.98 7.19376 1.86161
103 4 10.7368 5.69693 1.03288
172 7 9.10825 4.39909 3.30103
169 7 9.86412 6.87748 3.19991
132 5 11.9663 5.06857 3.39859
106 4 3.19932 12.9339 0.792888
128 5 3.22926 10.6404 2.1438
141 6 0.786029 11.4052 0.613836
113 4 1.5427 12.748 2.71293
161 7 0.790789 9.65414 2.81014
142 6 5.35454 8.60829 2.38327
100 4 5.71522 11.6653 1.99524
121 5 8.58063 12.1022 1.95031
145 6 10.1496 10.1571 3.46751
125 5 12.5109 11.7651 3.04222
115 4 11.3142 12.3873 0.404279
117 4 2.70127 4.04377 5.87815
130 5 1.75736 1.33542 5.37344
131 5 4.54504 1.93339 5.06063
134 5 8.30661 1.53761 5.42357
156 6 8.10862 4.06683 6.04881
177 7 12.884 3.33066 6.11776
178 7 10.4842 2.58346 4.50115
175 7 12.2911 0.636564 5.52284
30 2 10.0822 0.514044 6.65073
160 7 10.0147 2.8216 7.27636
126 5 1.49801 4.28518 3.87183
136 5 3.04233 6.46961 6.38748
152 6 0.187256 6.16223 6.13953
168 7 1.15289 7.09821 3.91473
165 7 3.73972 6.23494 3.80013
112 4 5.3268 4.97049 5.7547
110 4 6.54344 5.92391 3.3141
173 7 8.01729 6.6792 5.29062
170 7 5.61045 7.70707 5.06092
174 7 7.67993 8.90288 7.00687
137 5 10.6789 5.07865 5.7057
150 6 11.8617 8.22144 4.43713
108 4 3.82546 12.8985 3.74127
153 6 0.593212 9.06961 5.94588
111 4 1.88394 11.4509 4.83868
164 7 3.08498 8.88208 4.56205
176 7 4.13233 12.7389 6.35384
99 4 1.04179 12.2618 7.11262
147 6 6.76004 12.7556 4.38544
129 5 7.33302 9.92014 4.21406
114 4 4.83571 10.6229 4.63951
155 6 8.75506 11.5086 6.04227
162 7 6.09233 11.1758 6.76435
139 6 10.1034 12.6075 4.52692
154 6 9.85014 9.15665 5.66838
157 6 11.9543 10.8096 5.486
68 3 3.71086 1.8753 8.86009
79 3 1.42443 1.06097 9.01985
32 2 2.70769 0.834422 8.05466
20 1 2.66263 3.33794 9.60419
39 2 5.31136 2.27215 7.98386
23 1 7.4686 3.48869 8.65666
76 3 6.1291 1.28324 8.99146
119 5 6.83331 0.488785 7.10599
69 3 5.27929 3.75481 8.47887
73 3 7.81973 2.85383 10.4192
1 1 6.12899 1.09186 11.1104
8 1 12.7481 1.31127 8.82087
48 3 10.5124 3.33261 9.22948
89 3 9.20496 0.48589 10.7091
66 3 11.7992 1.34115 10.6352
12 1 1.12499 7.6978 9.25521
44 3 1.52935 6.59559 7.70434
56 3 3.13124 8.29133 7.90592
42 2 3.49835 5.59019 9.2407
57 3 2.57402 4.71876 8.44569
94 3 4.39582 5.86987 8.09677
92 3 0.0464615 4.53319 9.15635
62 3 3.17023 7.02186 9.98371
43 3 3.79607 4.51873 10.3906
34 2 4.47512 7.61551 10.5541
133 5 6.65351 6.34063 7.59355
45 3 7.16877 5.06074 9.42586
27 1 5.5413 4.26333 10.5449
18 1 8.41925 5.04126 10.7906
74 3 5.31934 7.74903 9.26173
28 1 7.28873 8.11266 10.344
10 1 11.778 5.31919 8.34443
118 4 9.21097 6.84722 7.56278
77 3 12.3228 7.1366 9.35617
135 5 11.6427 7.86738 7.33663
65 3 9.81068 6.97587 9.85332
80 3 9.37488 8.83829 11.5168
138 5 3.10807 10.3179 7.15974
54 3 0.160089 9.027 8.28568
96 3 1.73152 11.2161 9.19323
60 3 4.08083 10.3358 9.61452
29 2 2.68538 10.5053 10.1944
7 1 5.81339 10.9157 10.1185
9 1 8.34348 12.6589 9.16137
158 6 5.20222 8.90853 7.36023
78 3 7.75421 10.839 9.96216
31 2 7.73349 10.7681 8.40932
98 3 6.53144 9.23549 11.553
140 6 11.1381 11.89 7.4713
67 3 12.553 12.4754 9.10393
14 1 13.0292 10.4981 9.4745
15 1 8.29727 10.7899 11.9631
88 3 11.219 10.3838 9.56799
146 6 10.1489 9.91394 7.93162
25 1 10.8571 12.5888 11.0135
61 3 1.37206 3.94822 11.2175
36 2 4.17571 2.07654 12.4153
59 3 2.95551 1.0219 11.547
71 3 3.44295 3.2065 12.8662
26 1 2.93175 4.86255 12.2144
21 1 1.44319 2.04554 12.4474
53 3 0.545085 0.601484 11.953
93 3 5.17646 2.69226 11.4931
86 3 4.73429 1.01806 13.2093
41 2 8.17293 3.00767 12.1103
55 3 7.41801 4.26958 12.3761
63 3 7.56704 1.83857 12.6322
95 3 9.80135 3.20684 12.0014
22 1 10.2374 2.09827 10.4556
47 3 12.6342 2.60292 12.9434
40 2 12.3436 1.14585 12.1262
84 3 11.1841 0.550363 12.6481
24 1 11.2788 3.73634 12.686
16 1 8.44487 13.166 12.4453
38 2 0.470507 4.89266 10.4986
4 1 2.17932 7.80214 11.4231
75 3 1.03816 6.39564 10.6903
51 3 3.22477 6.61514 13.0733
37 2 4.34309 7.26799 13.8711
85 3 3.95584 8.69628 11.432
82 3 5.2279 6.58953 11.2747
11 1 6.66824 5.87579 12.7697
46 3 5.77461 6.85373 14.076
90 3 7.88878 6.85052 11.6284
52 3 12.2499 8.55183 11.4338
58 3 12.4704 4.87433 11.5178
17 1 11.6315 6.7389 11.063
33 2 9.33885 7.29466 11.216
72 3 10.181 6.08861 11.9616
19 1 1.1823 12.8882 10.2191
3 1 3.10063 9.89241 12.8632
35 2 0.444377 9.32937 11.5941
91 3 1.69516 9.2722 10.3423
2 1 3.96927 12.5364 11.7245
87 3 2.82064 11.3983 11.4007
64 3 1.18219 9.1709 12.9426
6 1 5.76844 9.58208 13.2104
81 3 5.53778 12.4069 10.9006
50 3 4.60828 11.1034 13.1688
13 1 5.6666 12.5764 13.34
97 3 7.29627 11.72 12.9424
5 1 11.1124 9.95535 11.589
49 3 9.89894 11.6253 11.989
70 3 12.8684 10.77 11.3079
83 3 3.90036 8.75662 14.2784
143 6 4.56477 1.92145 35.0101
148 6 9.46001 0.863781 35.3434
ITEM: TIMESTEP
8300
ITEM: NUMBER OF ATOMS
178
ITEM: BOX BOUNDS pp pp pp
0.0000000000000000e+00 1.3168533823700001e+01
0.0000000000000000e+00 1.3168533823700001e+01
0.0000000000000000e+00 3.5381309593600001e+01
ITEM: ATOMS id type x y z
149 6 2.53353 2.03847 2.19471
163 7 4.26941 3.95286 3.21238
101 4 3.75914 3.5395 0.477618
144 6 0.32758 3.69552 0.903102
167 7 13.0508 0.962301 0.910645
104 4 8.84798 3.36702 0.349751
159 7 5.36401 1.53212 2.35637
166 7 7.0483 0.749947 0.373855
109 4 6.67271 3.18371 3.80026
171 7 8.33085 1.64902 2.49155
122 5 6.67905 3.74089 1.21779
151 6 12.8324 2.0299 3.37749
127 5 10.7586 3.01617 1.723
116 4 10.7766 0.636784 2.05755
105 4 2.17597 5.14687 1.62955
120 5 2.6034 7.75004 1.6535
102 4 5.01979 6.10713 1.30927
123 5 8.41251 6.2324 1.11337
107 4 7.70074 8.12942 2.59292
124 5 12.9423 7.01104 1.66972
103 4 10.7688 5.41107 1.28484
172 7 8.91526 4.25241 3.24986
169 7 9.8374 6.70551 3.35201
132 5 12.2753 4.99656 3.52529
106 4 3.19752 13.1165 0.795225
128 5 3.02489 10.6595 2.16207
141 6 0.544922 11.4564 0.638104
113 4 1.34507 12.833 2.66257
161 7 0.627727 9.58703 2.96624
142 6 5.02877 8.5539 2.46155
100 4 5.72182 11.6388 2.0519
121 5 8.13483 12.2066 1.8917
145 6 9.98635 10.3218 3.34281
125 5 12.3319 12.0779 2.90059
115 4 11.1922 11.7912 0.531098
117 4 2.74957 4.28438 6.08507
130 5 2.02535 1.25836 5.09072
131 5 4.50321 2.20328 5.19679
134 5 8.14076 1.80072 5.6735
156 6 8.10711 4.29167 5.97353
177 7 12.8172 3.33168 5.75636
178 7 10.5078 2.56303 4.72655
175 7 12.4797 0.485833 5.58443
30 2 10.1197 0.721916 6.6312
160 7 10.232 2.96554 7.3316
126 5 1.65627 4.18874 3.99565
136 5 3.06879 6.84809 6.37722
152 6 0.119384 5.96986 6.00189
168 7 1.30873 6.9849 4.0528
165 7 3.70789 6.20933 3.73469
112 4 5.44104 4.83384 5.72631
110 4 6.67505 5.82087 3.20306
173 7 8.07891 6.79455 5.30204
170 7 5.68617 7.94477 5.04167
174 7 7.63777 8.75716 7.15666
137 5 10.6294 5.53203 5.82552
150 6 11.8824 8.07964 4.17938
108 4 3.86935 12.9262 3.58859
153 6 0.689657 9.11109 6.01374
111 4 1.86637 11.3641 4.80462
164 7 3.05599 8.80824 4.48254
176 7 4.24776 12.9582 6.23282
99 4 1.12313 12.2122 6.62024
147 6 6.7884 12.8177 4.56938
129 5 7.21659 9.98212 4.22102
114 4 4.7624 10.6262 4.55268
155 6 8.84426 11.3968 6.31051
162 7 6.26484 11.0974 6.65246
139 6 10.1029 12.534 4.65188
154 6 9.86067 9.02294 5.55264
157 6 11.8657 10.596 5.4293
68 3 3.43186 1.34156 8.9429
79 3 1.10505 1.20734 8.82869
32 2 2.32979 0.864446 7.8216
20 1 2.49952 3.25796 9.18541
39 2 4.7292 1.61715 8.22564
23 1 6.68791 3.04071 8.45886
76 3 5.97961 1.18693 9.14215
119 5 6.76014 0.415559 7.44313
69 3 4.95031 3.15695 7.96138
73 3 7.88681 2.88231 10.1814
1 1 6.79276 0.434576 10.6765
8 1 12.3934 1.78129 9.20864
48 3 10.3359 3.63495 9.35955
89 3 8.82605 0.251197 10.6478
66 3 11.5687 1.37522 10.7213
12 1 1.76768 7.74401 8.9327
44 3 1.21127 6.45694 7.55419
56 3 2.9328 8.51204 7.63361
42 2 3.61041 5.65682 9.36806
57 3 2.82686 4.84742 8.23073
94 3 4.45997 6.29356 7.9533
92 3 13.156 3.90834 8.99886
62 3 3.37136 7.16525 9.88928
43 3 4.00512 4.43944 10.3023
34 2 4.64024 7.64849 10.5954
133 5 6.45485 6.42195 7.33905
45 3 6.52813 5.032 9.2309
27 1 5.74236 4.15901 10.799
18 1 8.13893 5.135 10.436
74 3 5.41174 8.12832 9.45213
28 1 7.46591 9.15383 10.2882
10 1 11.5513 4.86581 8.66014
118 4 9.17559 6.63247 7.77576
77 3 11.7924 6.70974 8.96504
135 5 11.7363 8.15071 7.36796
65 3 9.22694 7.36143 9.87443
80 3 9.03134 9.0957 11.8933
138 5 3.30366 10.5467 7.1359
54 3 0.466936 8.83766 8.33603
96 3 1.60728 11.2552 8.72831
60 3 3.83279 9.87783 9.10145
29 2 2.45271 10.5078 9.71488
7 1 5.50869 10.861 10.5072
9 1 9.12992 12.9391 8.84864
158 6 5.08801 8.8619 7.47042
78 3 7.40625 11.3228 9.99493
31 2 7.45505 10.8226 8.50916
98 3 6.68134 9.8574 11.8181
140 6 11.5796 11.9421 7.34025
67 3 12.512 12.2708 9.15849
14 1 12.7473 10.5332 9.49787
15 1 8.37181 10.8364 11.7635
88 3 10.6715 9.46917 9.71986
146 6 10.013 10.1155 7.93682
25 1 11.6865 12.2569 11.0042
61 3 1.51205 3.46322 10.8208
36 2 4.10808 1.86605 12.2131
59 3 2.97336 0.822204 11.2544
71 3 3.37366 3.23748 12.8538
26 1 3.34102 4.76085 12.1851
21 1 1.40378 1.8871 12.2776
53 3 0.766492 0.238879 12.0156
93 3 5.25011 2.49438 11.3471
86 3 4.55545 0.92418 13.3542
41 2 8.06362 2.9753 11.8217
55 3 7.39815 4.31265 12.2091
63 3 7.8249 1.49971 12.3973
95 3 9.63782 3.13982 12.0509
22 1 9.79137 1.82567 10.4949
47 3 12.8621 2.53987 12.3681
40 2 12.3749 1.15957 12.1375
84 3 11.4039 0.280521 12.8444
24 1 10.9762 4.29531 11.8876
16 1 9.28928 12.906 12.8017
38 2 0.580915 4.5097 10.3623
4 1 2.1314 8.07521 11.5176
75 3 1.18875 5.94146 10.3054
51 3 3.0491 6.60607 12.9169
37 2 4.1008 7.43729 13.5543
85 3 4.20562 8.86736 11.5795
82 3 5.04185 6.23153 11.1912
11 1 6.59712 5.88225 12.8367
46 3 5.46198 7.01919 13.8734
90 3 7.42175 7.18415 11.6353
52 3 12.3243 8.6054 11.8357
58 3 12.4991 5.03461 11.4351
17 1 11.8972 6.67138 11.0306
33 2 8.95648 7.65235 11.4322
72 3 10.0657 6.59313 11.8432
19 1 1.60953 13.102 10.225
3 1 3.13761 10.5288 13.1102
35 2 0.30587 9.58825 12.0115
91 3 1.56186 9.25314 10.3397
2 1 3.90449 12.7151 12.094
87 3 2.79959 11.2602 11.1757
64 3 1.40414 9.14738 12.9116
6 1 5.59965 9.78913 13.2092
81 3 5.52504 12.732 11.2374
50 3 4.62151 11.6048 13.2481
13 1 6.36265 0.0991872 13.4207
97 3 7.59737 12.1165 13.6863
5 1 10.6994 9.81287 11.6061
49 3 10.1348 11.3928 11.6294
70 3 13.0682 10.8071 11.3379
83 3 3.79356 8.89993 13.8579
143 6 4.79613 1.72375 35.0555
148 6 9.61589 0.815455 35.24
ITEM: TIMESTEP
8400
ITEM: NUMBER OF ATOMS
178
ITEM: BOX BOUNDS pp pp pp
0.0000000000000000e+00 1.3168533823700001e+01
0.0000000000000000e+00 1.3168533823700001e+01
0.0000000000000000e+00 3.5381309593600001e+01
ITEM: ATOMS id type x y z
149 6 2.40415 2.18754 2.18141
163 7 4.44092 3.89267 3.16723
101 4 3.95655 3.66199 0.563745
144 6 0.412998 3.67176 1.11653
167 7 12.8513 0.816432 0.860494
104 4 8.87694 3.32252 0.426602
159 7 5.29634 1.44126 2.32608
166 7 7.1718 0.780412 0.590142
109 4 6.9318 3.11979 4.04319
171 7 8.54903 1.82189 2.6461
122 5 6.46425 3.7361 1.23255
151 6 12.9128 1.79529 3.42481
127 5 10.9903 2.89867 1.57364
116 4 10.7584 0.402964 2.38404
105 4 2.36112 5.21594 1.50443
120 5 2.40559 7.83016 1.72236
102 4 5.02035 6.30795 1.22798
123 5 8.34831 5.8187 1.19441
107 4 7.68129 8.0992 2.41538
124 5 12.8386 6.67216 1.84883
103 4 10.6505 5.3171 0.819121
172 7 9.12361 4.46752 3.33934
169 7 9.91063 6.81783 3.13827
132 5 12.0883 4.71913 3.45124
106 4 3.36012 12.9647 0.86709
128 5 2.92115 10.6391 2.01315
141 6 0.512596 11.2018 0.779112
113 4 1.23651 13.0084 2.64302
161 7 0.484737 9.60535 2.98448
142 6 5.2052 8.79019 2.48073
100 4 5.65159 11.5665 2.05566
121 5 8.50325 12.1097 2.04869
145 6 10.1367 10.1431 3.10758
125 5 12.5134 11.8395 3.23146
115 4 10.9909 11.7114 0.851876
117 4 2.77256 4.29868 5.83665
130 5 1.94546 1.59132 5.30116
131 5 4.74377 2.18685 5.29309
134 5 8.27684 1.65917 6.10031
156 6 8.31132 4.47159 5.91157
177 7 12.8291 3.36539 5.83045
178 7 10.279 2.47814 4.56248
175 7 12.5989 0.247257 5.51518
30 2 10.4653 0.889083 6.45045
160 7 10.1634 3.10969 7.2804
126 5 1.73854 4.21013 3.85674
136 5 2.84534 6.92275 6.30242
152 6 0.150567 6.01494 6.07527
168 7 1.20852 6.8371 3.90481
165 7 3.93927 6.48077 3.84545
112 4 5.386 5.1726 5.61365
110 4 6.63063 5.76479 3.44301
173 7 8.0711 6.99792 5.30337
170 7 5.5899 8.11439 5.26416
174 7 7.64471 8.87418 7.1172
137 5 10.6404 5.41883 5.69509
150 6 11.8659 8.09414 4.35732
108 4 3.96923 0.0262372 3.55173
153 6 0.723051 9.1116 5.96585
111 4 1.85657 11.7577 4.77364
164 7 2.91325 9.03739 4.17232
176 7 4.18589 12.9406 6.21286
99 4 1.17972 12.0016 7.04331
147 6 6.7891 13.0561 4.41439
129 5 7.42379 10.0932 4.09882
114 4 4.69315 10.7579 4.41845
155 6 8.70839 11.3898 6.20306
162 7 5.92039 10.9795 6.57357
139 6 9.78824 12.546 4.67454
154 6 9.73123 8.98175 5.56898
157 6 11.7276 10.5995 5.41154
68 3 3.66598 1.50853 9.07813
79 3 1.55321 0.663981 8.71161
32 2 2.94973 0.547576 8.02867
20 1 2.39551 3.38613 9.07854
39 2 4.5627 2.04685 7.81516
23 1 6.91768 3.24385 8.13156
76 3 6.0143 1.93659 8.53414
119 5 6.72052 0.221505 7.28936
69 3 3.8205 3.32794 7.50714
73 3 7.79756 3.1815 10.2073
1 1 6.00066 1.51554 10.3953
8 1 13.0021 1.53281 8.30584
48 3 10.7341 3.67983 9.22218
89 3 9.21888 0.825892 10.2991
66 3 11.7598 1.65164 10.1454
12 1 1.12632 7.57654 9.6417
44 3 0.746053 7.21779 7.66193
56 3 2.93641 8.56494 7.58049
42 2 3.56158 5.70738 8.96721
57 3 2.24789 5.54286 8.07538
94 3 4.29556 6.42998 7.75556
92 3 0.399228 3.8389 8.7979
62 3 3.13837 7.09767 9.88455
43 3 3.62595 4.49314 9.94899
34 2 4.65812 7.3922 10.7027
133 5 6.62008 6.15691 7.65392
45 3 6.11346 4.78608 9.15172
27 1 5.20643 4.20819 10.9252
18 1 7.50504 5.49233 10.6264
74 3 5.7196 7.76598 9.68888
28 1 7.06255 8.44577 10.6946
10 1 11.8545 5.03701 8.49476
118 4 9.245 6.74137 7.60379
77 3 11.912 6.73433 8.97996
135 5 11.8962 7.84137 7.18084
65 3 8.55185 6.96938 9.60871
80 3 9.16555 8.88529 11.2959
138 5 3.28167 10.7207 7.26966
54 3 0.402312 8.65467 8.31724
96 3 1.83782 11.0861 8.88058
60 3 4.14027 10.1586 9.56163
29 2 2.76993 10.5712 10.1749
7 1 5.83509 11.266 9.78943
9 1 8.88018 12.7909 9.05843
158 6 4.98557 8.81893 7.64545
78 3 8.13023 11.0708 9.79175
31 2 7.93347 10.7086 8.33288
98 3 6.31158 9.80591 11.7357
140 6 11.4342 11.9441 7.24814
67 3 12.1767 11.7068 9.19198
14 1 0.117271 10.2748 9.39785
15 1 8.01469 10.6228 11.5205
88 3 11.2139 9.14562 9.51496
146 6 10.41 9.92283 7.78718
25 1 11.5669 12.0607 10.8863
61 3 1.3948 3.4999 11.0318
36 2 4.04881 2.07068 12.4313
59 3 2.99373 1.20688 11.9105
71 3 3.46071 3.15177 13.2246
26 1 2.35084 4.87614 12.6353
21 1 1.25303 2.15771 12.2153
53 3 0.544748 0.851726 11.2351
93 3 4.79115 2.44111 11.1469
86 3 5.0106 1.10259 13.2332
41 2 7.80492 3.25746 11.7886
55 3 6.76404 4.49484 11.9361
63 3 7.33895 2.12506 12.6994
95 3 9.23576 3.60727 12.264
22 1 10.0154 2.68306 10.391
47 3 12.564 2.57239 12.522
40 2 12.2197 1.29384 11.6194
84 3 11.2707 0.325396 12.4236
24 1 10.613 4.65142 11.9629
16 1 9.50309 13.1313 12.1205
38 2 0.340621 4.49152 10.5007
4 1 2.66758 7.45506 11.843
75 3 1.05754 5.89866 10.4563
51 3 2.70301 6.55172 13.4564
37 2 4.04907 7.06305 14.333
85 3 4.26789 8.36896 11.7093
82 3 5.06084 6.0342 11.3259
11 1 6.13255 5.66119 13.0316
46 3 5.37819 6.56819 14.2022
90 3 7.74557 6.81843 11.8897
52 3 13.1309 8.21771 11.541
58 3 12.2027 4.77121 11.1097
17 1 12.114 6.68554 11.1111
33 2 8.95986 7.23038 11.0132
72 3 10.2027 6.29506 11.2682
19 1 1.9723 0.3039 10.3551
3 1 2.50595 10.3869 14.3056
35 2 0.560049 9.54037 11.8052
91 3 1.79326 9.28327 10.6888
2 1 4.47805 12.6723 12.2275
87 3 2.52485 11.2679 11.3765
64 3 1.1928 9.8152 13.1732
6 1 4.84955 9.64933 12.6974
81 3 5.59255 12.7231 10.5501
50 3 4.10342 11.1824 13.1513
13 1 6.81521 0.666083 13.5609
97 3 8.37269 12.6561 13.176
5 1 10.8974 9.62987 11.1537
49 3 9.94069 11.3841 11.5099
70 3 12.6851 10.4964 11.0805
83 3 3.98026 8.5281 14.634
143 6 4.82833 1.26101 35.1234
148 6 9.68948 0.878685 35.3419
ITEM: TIMESTEP
8500
ITEM: NUMBER OF ATOMS
178
ITEM: BOX BOUNDS pp pp pp
0.0000000000000000e+00 1.3168533823700001e+01
0.0000000000000000e+00 1.3168533823700001e+01
0.0000000000000000e+00 3.5381309593600001e+01
ITEM: ATOMS id type x y z
149 6 2.78539 2.10917 2.00414
163 7 4.31084 4.12907 3.35421
101 4 4.17051 3.62762 0.587451
144 6 0.231736 3.85882 0.996362
167 7 12.735 0.527417 0.76909
104 4 8.86219 3.34086 0.39213
159 7 5.44234 1.47281 2.3664
166 7 7.3024 0.804846 0.544902
109 4 7.00458 3.24651 4.12431
171 7 8.48477 1.47544 2.86153
122 5 6.59132 3.62682 1.46513
151 6 13.1358 2.04698 3.43483
127 5 11.0747 3.01711 1.63876
116 4 11.014 0.611299 2.54465
105 4 2.47479 5.49517 1.38416
120 5 2.73946 8.00306 1.53595
102 4 5.21299 6.17085 1.35732
123 5 8.05393 5.95644 0.88192
107 4 7.58087 8.1517 2.3447
124 5 12.7934 6.5463 1.91029
103 4 10.6172 5.3226 0.858351
172 7 9.29413 4.65099 3.03113
169 7 9.9549 7.18182 2.76833
132 5 12.0443 4.89862 3.49102
106 4 3.18416 12.8868 0.71191
128 5 3.11045 10.7231 2.20777
141 6 0.596341 11.1504 0.737692
113 4 1.37371 12.9374 2.60117
161 7 0.536752 9.41255 2.93865
142 6 5.19838 8.90954 2.39511
100 4 5.60455 11.97 1.86121
121 5 8.4342 11.9982 2.06648
145 6 10.3965 9.94707 3.26057
125 5 12.5349 11.8102 3.13954
115 4 10.9661 11.6279 0.902138
117 4 2.7541 4.55628 5.59847
130 5 1.94134 1.38231 5.52648
131 5 4.79184 2.16195 5.03107
134 5 8.25622 1.31166 6.06023
156 6 8.11461 4.33184 5.98675
177 7 12.8105 3.1668 6.0025
178 7 10.4047 2.50656 4.69281
175 7 12.6004 0.267345 5.34224
30 2 10.4417 0.909356 6.61121
160 7 10.1408 3.23677 7.22164
126 5 1.40647 4.33709 3.66281
136 5 2.99096 7.01736 6.25532
152 6 0.326979 5.91753 5.95327
168 7 1.36186 6.99437 3.84453
165 7 3.78814 6.50356 3.64378
112 4 5.39024 5.13598 5.74975
110 4 6.59897 5.87494 3.49795
173 7 8.02362 6.91039 5.09325
170 7 5.42434 8.22905 5.18147
174 7 7.52469 8.97582 7.15648
137 5 10.6597 5.35661 5.58561
150 6 11.8913 7.9525 4.48945
108 4 3.66084 0.0112379 3.69995
153 6 0.541341 9.17481 5.9502
111 4 1.69192 11.4047 4.9676
164 7 2.81367 9.05713 4.41912
176 7 3.98329 12.8503 6.36798
99 4 0.910595 12.1787 6.97212
147 6 6.68744 13.0136 4.38441
129 5 7.28067 9.97248 4.13261
114 4 4.66365 10.9711 4.42513
155 6 8.66307 11.3622 6.17589
162 7 5.96108 10.9478 6.61939
139 6 10.05 12.2993 4.61418
154 6 9.62671 9.16439 5.42131
157 6 11.948 10.6927 5.44917
68 3 3.50704 1.54399 9.0361
79 3 1.46919 1.1258 8.9654
32 2 2.61886 0.870171 7.99048
20 1 2.53893 3.32813 8.82346
39 2 4.72165 2.20014 7.8584
23 1 7.3143 3.61121 8.44338
76 3 5.87629 1.96541 8.8371
119 5 6.23919 0.307491 7.2228
69 3 4.01509 3.46706 7.69184
73 3 7.39988 3.13531 10.2559
1 1 5.98669 0.949532 10.5116
8 1 12.7219 1.44472 8.55228
48 3 10.1765 4.38813 8.958
89 3 8.87101 0.760239 10.5166
66 3 12.1528 2.20432 10.0541
12 1 1.0806 7.2744 9.52167
44 3 0.75661 7.7523 7.65631
56 3 3.09623 8.4621 7.89725
42 2 3.2538 5.83525 9.01006
57 3 2.04791 6.14174 8.09784
94 3 4.19891 6.193 7.84758
92 3 1.01729 4.18895 9.10297
62 3 3.1582 7.24116 10.1211
43 3 3.32101 4.82595 10.0395
34 2 4.51226 7.53574 10.9562
133 5 6.58251 6.66303 7.42007
45 3 6.15114 5.14576 8.87798
27 1 4.78931 4.26801 10.9951
18 1 6.93739 5.66475 10.5533
74 3 5.74358 7.68494 10.0256
28 1 7.6171 8.6125 10.0149
10 1 12.0093 4.66951 9.23354
118 4 9.32719 6.74159 7.4587
77 3 12.5534 6.56214 9.29168
135 5 11.7328 7.61331 7.36941
65 3 8.70228 6.29542 9.82142
80 3 9.23311 8.504 10.8158
138 5 3.2969 10.2549 6.88877
54 3 0.66853 10.0901 7.79427
96 3 2.19712 11.117 9.2276
60 3 4.2284 10.065 9.82019
29 2 2.89583 10.4517 10.3752
7 1 5.09957 11.4464 9.27326
9 1 8.48935 0.24176 9.10122
158 6 5.15397 8.6921 8.05974
78 3 7.23794 11.9123 9.46345
31 2 7.5311 10.9493 8.29999
98 3 6.84572 9.61594 11.2967
140 6 10.9875 11.9963 7.46546
67 3 12.3224 12.2286 9.25254
14 1 0.159502 10.4746 9.59313
15 1 8.01845 10.9791 10.9913
88 3 11.9834 8.78072 9.19198
146 6 10.4488 9.54094 7.67681
25 1 12.424 12.0434 11.003
61 3 1.41182 3.73935 11.906
36 2 4.11818 1.99865 12.6834
59 3 2.79318 1.03037 12.5043
71 3 3.72259 3.17846 13.6304
26 1 2.78421 4.48806 12.8646
21 1 1.06763 2.2068 12.6142
53 3 0.367124 0.347419 11.5462
93 3 4.59653 2.4432 11.1663
86 3 5.21531 1.03872 13.1299
41 2 7.81334 3.32107 11.9014
55 3 6.68224 4.34489 12.3842
63 3 7.73995 2.04464 12.6726
95 3 9.2336 3.96864 11.8173
22 1 10.1055 2.04572 10.3059
47 3 12.559 2.36 12.6091
40 2 12.4295 1.31447 11.4186
84 3 10.9783 0.6948 11.5745
24 1 10.7577 4.82467 11.989
16 1 9.47795 12.741 11.7168
38 2 0.863687 4.71252 10.6283
4 1 2.03814 7.35447 11.8012
75 3 1.30173 6.13811 10.736
51 3 2.50854 6.27598 13.095
37 2 3.49851 6.68324 14.1345
85 3 4.32433 8.61068 12.0879
82 3 4.87936 6.14384 11.6083
11 1 6.17536 5.95604 12.8634
46 3 4.84987 6.23159 14.3998
90 3 7.70093 6.81887 12.0008
52 3 13.1636 7.8658 12.3962
58 3 12.4753 4.7654 11.1246
17 1 12.3947 6.83552 11.1483
33 2 9.12804 6.83712 11.2754
72 3 10.4483 6.58017 12.0515
19 1 2.69049 13.1259 10.6936
3 1 3.21681 9.67261 13.6327
35 2 0.700155 9.27423 12.0331
91 3 1.69372 9.27634 10.7509
2 1 4.2574 12.5389 12.6762
87 3 2.87133 11.428 11.4716
64 3 1.41808 9.6705 13.2683
6 1 5.57379 10.1089 12.1971
81 3 4.82139 12.674 10.8503
50 3 4.58768 10.8224 13.6191
13 1 7.25174 0.556753 13.0871
97 3 7.33361 12.1013 12.3339
5 1 10.7449 9.61347 10.6079
49 3 9.86952 11.0518 11.3936
70 3 12.7494 10.3004 11.2632
83 3 3.20337 8.18625 14.6593
143 6 4.68636 1.16994 35.1935
148 6 9.9374 0.732157 0.166286
ITEM: TIMESTEP
8600
ITEM: NUMBER OF ATOMS
178
ITEM: BOX BOUNDS pp pp pp
0.0000000000000000e+00 1.3168533823700001e+01
0.0000000000000000e+00 1.3168533823700001e+01
0.0000000000000000e+00 3.5381309593600001e+01
ITEM: ATOMS id type x y z
149 6 2.67698 2.28569 2.13338
163 7 4.38241 3.91593 3.13283
101 4 4.30513 3.73723 0.446674
144 6 0.307014 4.07401 0.850011
167 7 12.8394 0.594304 0.923826
104 4 8.95972 3.05192 0.563216
159 7 5.5306 1.56227 2.46223
166 7 7.29939 0.841499 0.451184
109 4 6.76674 2.9461 3.96818
171 7 8.54167 1.52794 2.74827
122 5 6.81555 3.68404 1.28674
151 6 13.1159 2.2694 3.15702
127 5 10.9342 2.9861 1.84311
116 4 11.0754 0.400935 2.60662
105 4 2.37125 5.30345 1.25684
120 5 2.59504 7.92926 1.64235
102 4 5.13801 6.43448 1.06177
123 5 8.29908 6.19917 0.992746
107 4 7.45404 8.04705 2.41412
124 5 13.1565 6.95232 1.65938
103 4 10.6286 5.34185 0.977058
172 7 8.84198 4.57508 3.25098
169 7 9.94947 7.21648 2.65619
132 5 12.0268 4.99918 3.39165
106 4 2.77755 13.0385 0.775901
128 5 2.66675 10.7663 2.19443
141 6 0.878412 11.2186 0.521928
113 4 1.30624 0.198243 2.78829
161 7 0.452866 9.30905 2.85089
142 6 5.11472 8.86395 2.48456
100 4 5.54635 11.9278 1.79391
121 5 8.4404 12.0876 2.08087
145 6 10.3441 10.032 3.19857
125 5 12.5663 11.4888 3.14887
115 4 11.1108 11.506 0.886696
117 4 2.57266 4.41231 5.84969
130 5 1.92216 1.50132 5.21051
131 5 4.46345 2.22317 5.22183
134 5 8.38975 1.57264 5.79227
156 6 8.03948 4.28031 5.91306
177 7 12.8452 3.27152 5.81883
178 7 10.4171 2.76537 4.56325
175 7 12.4465 0.418002 5.26018
30 2 10.3094 0.639577 6.49569
160 7 10.1206 3.21044 7.38908
126 5 1.65766 4.4418 3.55971
136 5 3.02374 6.93229 6.42567
152 6 0.345317 5.9146 6.15636
168 7 1.35652 6.94937 4.00806
165 7 3.86154 6.49522 3.66263
112 4 5.34687 5.0712 5.58645
110 4 6.46848 5.88552 3.33328
173 7 8.22864 6.92686 5.02836
170 7 5.62803 8.1396 5.32534
174 7 7.67786 8.87572 6.95087
137 5 10.5637 5.32399 5.46392
150 6 11.7015 7.84752 4.49099
108 4 3.84688 13.0614 3.64931
153 6 0.316666 9.00676 5.80547
111 4 1.84483 11.6977 4.71851
164 7 3.05546 9.00003 4.41614
176 7 3.71536 12.6924 6.3181
99 4 1.06664 12.1786 6.93447
147 6 6.72848 12.7099 4.64726
129 5 7.44023 10.0873 3.96211
114 4 4.7817 10.8958 4.10421
155 6 8.54322 11.5126 6.33715
162 7 5.81093 10.927 6.529
139 6 9.99622 12.1933 4.69393
154 6 9.90998 9.01634 5.44388
157 6 11.8885 10.7981 5.75889
68 3 3.11915 2.20235 8.95335
79 3 1.1401 0.977958 8.84581
32 2 2.36377 1.27773 7.93224
20 1 1.96699 3.62626 8.92138
39 2 4.47028 2.4448 8.09847
23 1 7.01586 3.54975 8.55153
76 3 5.68649 2.09686 8.94065
119 5 6.0666 0.62177 6.99389
69 3 4.4399 3.71772 7.49295
73 3 7.15941 3.04874 10.6057
1 1 6.01387 0.988553 10.5243
8 1 12.6117 1.19961 8.85466
48 3 10.933 3.96294 8.94263
89 3 8.54543 0.87632 10.0091
66 3 11.5014 2.02494 10.4285
12 1 1.73475 7.17173 9.53143
44 3 1.0356 7.22486 7.81967
56 3 3.34137 8.32302 8.05362
42 2 3.72347 5.8486 9.30315
57 3 2.40309 5.56111 8.55843
94 3 4.44981 6.43188 8.00471
92 3 0.590578 3.81991 9.79346
62 3 3.32869 6.91009 10.4124
43 3 3.77274 4.52435 10.0244
34 2 4.71447 7.13486 10.9869
133 5 6.44871 6.31404 7.40944
45 3 6.3127 5.07024 9.31384
27 1 5.19419 3.75975 10.862
18 1 7.89734 5.07935 10.8236
74 3 5.67088 7.50521 9.86136
28 1 8.29808 9.06837 9.64116
10 1 12.439 5.05525 8.85603
118 4 8.91586 6.32689 7.66544
77 3 12.4824 6.89572 9.29805
135 5 11.6634 7.28272 7.26996
65 3 9.29366 6.13395 9.87479
80 3 9.77854 8.41396 10.8793
138 5 3.1797 10.2388 6.95115
54 3 1.22373 9.784 7.56815
96 3 2.27155 11.5312 9.53749
60 3 4.51094 9.7453 10.0561
29 2 2.84231 10.3261 10.4281
7 1 5.00653 11.9391 9.11598
9 1 8.18084 0.190578 8.63741
158 6 5.5167 9.07061 8.12448
78 3 7.337 11.5897 9.53584
31 2 7.46562 10.7607 8.26585
98 3 7.14494 9.65154 10.895
140 6 10.9781 11.9067 7.67284
67 3 12.3134 11.641 9.39912
14 1 0.274328 9.9914 9.26554
15 1 8.03053 11.094 11.1355
88 3 11.5547 9.55346 9.17652
146 6 10.2148 9.67917 7.64134
25 1 11.5013 12.3608 11.0165
61 3 1.63566 3.9018 12.1528
36 2 4.11389 1.60184 12.7714
59 3 2.8671 0.656118 12.307
71 3 3.95476 2.91451 13.4791
26 1 3.19067 4.48777 12.8878
21 1 0.935045 2.13575 12.3518
53 3 0.0491269 0.377358 11.6099
93 3 5.02959 2.04652 11.6087
86 3 4.97641 0.64379 13.5114
41 2 7.84299 3.06771 12.0245
55 3 7.13764 4.10628 12.9687
63 3 8.14417 1.73762 12.6288
95 3 9.27425 3.88191 11.797
22 1 9.90699 2.10679 10.9271
47 3 12.2848 2.37884 12.8424
40 2 12.0834 1.42914 11.7544
84 3 10.5925 0.637465 11.8056
24 1 10.644 4.68877 12.3728
16 1 8.91226 0.0424335 11.4403
38 2 0.621392 4.55997 11.0808
4 1 1.71474 7.39671 11.9913
75 3 1.05382 5.97382 11.0324
51 3 2.74356 6.13557 13.3667
37 2 3.67498 6.88201 14.2043
85 3 4.35907 7.98501 12.1723
82 3 5.25656 5.77822 11.6633
11 1 6.33613 6.17064 13.1257
46 3 4.98179 6.32895 14.4839
90 3 8.06086 6.84957 11.7922
52 3 12.8094 8.20623 12.001
58 3 12.4186 4.86823 11.8277
17 1 12.2782 6.65059 11.0357
33 2 9.43709 6.96344 11.1864
72 3 10.4698 6.51332 12.2771
19 1 2.65344 13.089 10.9199
3 1 3.52914 9.72231 13.4055
35 2 0.0937986 9.69085 12.4597
91 3 1.73962 9.19232 10.2676
2 1 4.36631 12.2401 12.6494
87 3 3.18063 11.0204 11.7698
64 3 1.30102 9.86723 13.2824
6 1 5.50914 9.62297 11.6933
81 3 4.78211 12.8547 10.5324
50 3 5.09495 10.5482 13.0519
13 1 6.89652 0.414669 13.5033
97 3 7.40298 12.5716 12.1311
5 1 10.8779 9.82225 10.8696
49 3 9.87835 11.4737 11.1891
70 3 12.4524 10.8331 11.8517
83 3 3.27682 8.22615 14.7922
143 6 4.95553 1.31 35.3497
148 6 9.86384 0.660684 0.2097
ITEM: TIMESTEP
8700
ITEM: NUMBER OF ATOMS
178
ITEM: BOX BOUNDS pp pp pp
0.0000000000000000e+00 1.3168533823700001e+01
0.0000000000000000e+00 1.3168533823700001e+01
0.0000000000000000e+00 3.5381309593600001e+01
ITEM: ATOMS id type x y z
149 6 2.47803 2.39485 2.04976
163 7 4.4963 4.10559 2.95978
101 4 4.05164 3.70007 0.352301
144 6 0.221777 4.1933 0.948074
167 7 12.9548 0.78001 0.880246
104 4 8.89659 3.46609 0.234701
159 7 5.56086 1.40631 2.37628
166 7 7.34729 0.799999 0.44513
109 4 6.70529 3.06455 4.21082
171 7 8.54805 1.74147 2.74654
122 5 6.56925 3.59897 1.25469
151 6 12.8336 2.32511 3.27024
127 5 10.9031 2.6932 1.3643
116 4 11.056 0.317045 2.66471
105 4 2.49493 5.33088 1.47006
120 5 2.64224 7.84015 1.74445
102 4 5.14792 6.2238 1.25629
123 5 8.22629 5.73885 1.10195
107 4 7.60646 7.93073 2.46704
124 5 12.9315 6.92458 1.70656
103 4 10.782 5.28029 0.830291
172 7 9.10056 4.50949 3.20536
169 7 9.85339 6.89029 2.8916
132 5 12.0596 5.31287 3.30032
106 4 2.99768 0.0272821 0.989181
128 5 3.00452 10.9144 2.15869
141 6 0.725658 11.5988 0.686002
113 4 1.28726 0.086794 2.89974
161 7 0.496123 9.21427 2.69421
142 6 5.11382 8.69134 2.48541
100 4 5.68121 11.8739 1.95664
121 5 8.45785 12.1161 2.08456
145 6 10.3537 10.1275 3.24683
125 5 12.7551 11.3786 3.23243
115 4 11.359 11.7067 0.964095
117 4 2.74986 4.34365 5.822
130 5 1.65854 1.63382 5.15277
131 5 4.29063 2.23424 5.00711
134 5 8.35555 1.51892 5.72283
156 6 8.05597 4.32064 6.02801
177 7 12.7684 3.55334 5.6214
178 7 10.4894 2.62708 4.54145
175 7 12.3667 0.463418 5.29157
30 2 10.2495 0.391878 6.63458
160 7 10.1092 3.10214 7.23342
126 5 1.61329 4.26636 3.66998
136 5 3.11838 6.71255 6.36512
152 6 13.1615 6.03389 6.18436
168 7 1.28098 6.98747 4.09551
165 7 3.84536 6.37548 3.89611
112 4 5.27427 5.06564 5.80617
110 4 6.6082 5.65923 3.40303
173 7 8.17645 6.747 5.09159
170 7 5.64551 7.99906 5.14685
174 7 7.74611 8.62867 7.05897
137 5 10.6556 5.38894 5.69996
150 6 11.8762 7.9767 4.31976
108 4 3.6457 13.1526 3.51513
153 6 0.28351 9.14405 5.95193
111 4 1.86676 11.3123 4.8732
164 7 2.80614 8.95968 4.3669
176 7 3.97152 12.8862 6.06268
99 4 0.807843 12.1124 6.88112
147 6 6.83962 12.9524 4.32743
129 5 7.45076 9.95354 4.17882
114 4 4.66958 10.7695 4.27514
155 6 8.59326 11.2769 6.36558
162 7 5.87568 10.991 6.38239
139 6 9.90646 12.2107 4.77055
154 6 9.89414 9.18065 5.58133
157 6 11.8173 10.8877 5.59811
68 3 3.07945 2.14078 8.37529
79 3 1.6834 0.497303 8.93876
32 2 2.64462 0.670422 7.79505
20 1 2.21402 3.25357 9.74741
39 2 4.37478 2.66748 7.91129
23 1 6.80991 3.36612 7.96544
76 3 5.49448 2.2844 8.92369
119 5 6.12141 0.880775 6.84217
69 3 4.40535 4.01898 7.39381
73 3 7.44768 3.6728 11.1992
1 1 6.49217 1.17835 10.6909
8 1 12.9843 1.47549 8.26713
48 3 10.1726 4.11939 9.02322
89 3 8.28146 1.08232 10.5542
66 3 11.7302 1.56326 10.4652
12 1 0.453766 7.75476 9.51256
44 3 1.11678 6.99859 7.73955
56 3 3.52889 8.31549 7.79034
42 2 3.45848 5.47411 9.05144
57 3 2.17322 5.26197 8.49453
94 3 4.27064 6.37295 8.11081
92 3 0.161226 4.21177 9.81313
62 3 3.46881 6.46105 10.3687
43 3 3.75809 4.03772 9.71913
34 2 4.88814 6.87839 10.7352
133 5 6.46383 6.38507 7.4725
45 3 6.24358 4.89688 8.91501
27 1 5.42061 3.53217 10.7682
18 1 7.49157 5.44553 10.2378
74 3 5.7643 7.50729 9.62111
28 1 7.73136 8.2118 10.0608
10 1 11.8036 4.91953 9.05311
118 4 9.34804 6.07537 7.54426
77 3 12.2227 6.60654 9.17157
135 5 11.5087 7.8397 7.49712
65 3 9.26814 6.80215 9.5298
80 3 9.54352 8.44253 11.2424
138 5 3.24943 10.3202 6.91586
54 3 1.35852 9.21851 7.64515
96 3 1.83438 10.7592 8.91984
60 3 4.1751 9.90463 9.67563
29 2 2.59656 10.2043 10.0462
7 1 5.35518 11.9206 8.98897
9 1 8.62125 12.634 9.61987
158 6 5.52689 8.99396 8.13615
78 3 7.02028 11.3647 9.73699
31 2 7.30923 10.4935 8.36544
98 3 7.17296 9.27126 11.3508
140 6 11.2545 11.9277 7.66898
67 3 12.4442 11.9926 9.43903
14 1 0.0422702 10.3539 9.32129
15 1 7.83438 10.7694 11.2982
88 3 11.6452 9.1471 9.44594
146 6 10.1342 9.94473 7.95869
25 1 11.6096 11.995 11.1014
61 3 1.68248 3.81594 11.7765
36 2 3.98029 1.61581 12.8605
59 3 2.89586 1.05476 11.9033
71 3 4.04703 2.7647 13.8709
26 1 3.21161 4.39693 13.4412
21 1 1.29927 1.30783 12.5298
53 3 0.285248 13.1099 11.7838
93 3 5.43659 2.14889 11.9225
86 3 4.70565 0.244951 13.3054
41 2 8.09488 3.21348 12.638
55 3 7.55258 4.30892 13.5701
63 3 8.01679 1.77637 13.1335
95 3 9.54902 3.34087 12.1771
22 1 8.9851 2.62624 10.4242
47 3 12.7333 2.14548 12.7139
40 2 12.3129 1.19187 11.7776
84 3 11.0155 0.373693 12.2854
24 1 10.8415 4.62562 12.5485
16 1 9.13245 0.433928 12.1276
38 2 0.682897 4.65984 11.2359
4 1 2.09661 7.46892 11.5612
75 3 1.07492 6.23989 11.1434
51 3 3.34807 6.1131 13.8537
37 2 4.42752 7.38745 13.8358
85 3 4.69034 7.77393 12.0471
82 3 5.51091 5.58059 11.2725
11 1 6.84718 5.92374 12.8516
46 3 5.79708 6.74054 14.257
90 3 8.03958 6.23104 11.7002
52 3 12.8968 8.52336 11.2141
58 3 12.6414 4.93635 12.0764
17 1 12.2251 6.49137 11.1604
33 2 9.43013 6.95349 11.1497
72 3 10.4447 6.4048 12.1975
19 1 2.78617 12.6174 10.8745
3 1 3.48103 10.3067 13.2545
35 2 13.0738 9.4628 12.3426
91 3 2.29553 8.74447 10.1417
2 1 5.1775 12.3408 11.9695
87 3 2.36937 10.9534 11.2294
64 3 0.960901 9.21537 13.2481
6 1 5.36659 9.25542 11.3165
81 3 4.55526 12.4414 10.3837
50 3 4.88651 10.6491 12.2909
13 1 6.36633 0.911465 13.1837
97 3 7.37232 12.7679 12.1178
5 1 10.6542 9.86431 11.1806
49 3 9.70443 11.7106 11.1537
70 3 11.9982 10.5405 12.0337
83 3 4.1525 8.85918 14.2984
143 6 4.70221 1.31256 35.322
148 6 9.96143 0.611086 0.138383
ITEM: TIMESTEP
8800
ITEM: NUMBER OF ATOMS
178
ITEM: BOX BOUNDS pp pp pp
0.0000000000000000e+00 1.3168533823700001e+01
0.0000000000000000e+00 1.3168533823700001e+01
0.0000000000000000e+00 3.5381309593600001e+01
ITEM: ATOMS id type x y z
149 6 2.47785 2.18701 1.89973
163 7 4.23457 4.05296 3.13086
101 4 4.00912 3.65095 0.535189
144 6 0.0610866 4.04392 0.952683
167 7 13.0349 1.26644 0.75863
104 4 8.81595 3.30912 0.108539
159 7 5.20456 1.42074 2.18094
166 7 7.26811 0.823888 0.442692
109 4 6.78291 2.89424 4.0744
171 7 8.53901 1.58743 2.44195
122 5 6.6544 3.6035 1.32583
151 6 13.0061 2.34742 3.40671
127 5 10.8726 2.99092 1.55485
116 4 11.2026 0.428374 2.39251
105 4 2.20307 5.36244 1.51985
120 5 2.83297 7.7427 1.62932
102 4 5.23536 6.05052 1.40989
123 5 8.24519 5.97625 0.971999
107 4 7.49289 7.91214 2.43267
124 5 12.918 6.91697 1.84032
103 4 10.6915 5.35327 0.796619
172 7 9.22002 4.21719 3.06176
169 7 9.80906 6.82268 3.04538
132 5 12.0922 4.82134 3.4389
106 4 3.00246 12.9523 0.732286
128 5 2.86371 10.5277 2.21336
141 6 0.824041 11.6181 0.89436
113 4 1.07246 0.162914 3.03981
161 7 0.739276 9.28606 2.52165
142 6 5.22042 8.73365 2.43646
100 4 5.67938 11.6345 1.93689
121 5 8.57606 12.2027 2.00613
145 6 10.1394 10.099 3.20518
125 5 12.6409 11.4567 3.49514
115 4 11.1672 11.6885 0.856418
117 4 2.46566 4.51163 5.98728
130 5 1.87936 1.38381 5.7226
131 5 4.15214 2.14187 4.79793
134 5 8.26662 1.53984 5.88482
156 6 8.27144 4.22075 5.89313
177 7 12.7506 3.45372 6.07498
178 7 10.4182 2.33894 4.61065
175 7 12.2766 0.436195 5.53894
30 2 10.0633 0.595207 6.85212
160 7 10.2343 2.89479 7.20948
126 5 1.48509 4.24414 3.83725
136 5 2.67967 6.8219 6.27236
152 6 13.1408 6.50135 6.23705
168 7 1.14076 6.84767 4.00176
165 7 3.78526 6.38959 3.78998
112 4 5.50546 4.93667 5.56395
110 4 6.78775 5.70486 3.46617
173 7 8.1287 6.99818 5.4471
170 7 5.51359 8.13742 5.28173
174 7 7.79491 8.88975 7.34103
137 5 10.5181 5.42762 5.47585
150 6 11.7876 8.33932 4.33056
108 4 3.72305 13.0352 3.38928
153 6 0.382256 9.43103 5.92339
111 4 1.87881 11.5745 4.65426
164 7 2.90574 8.93248 4.42515
176 7 4.18445 12.8459 6.18718
99 4 1.15039 12.2608 6.73015
147 6 6.69482 12.8364 4.25566
129 5 7.49211 9.95308 4.12563
114 4 4.79637 10.7806 4.31419
155 6 8.72479 11.5643 6.40985
162 7 6.22511 10.9598 6.52963
139 6 9.88934 12.4355 4.64436
154 6 9.69211 9.13569 5.78236
157 6 11.499 10.708 5.65582
68 3 3.10768 1.87825 8.53067
79 3 1.44191 0.27378 8.79273
32 2 2.94527 0.277091 8.06107
20 1 2.12922 2.77799 10.0466
39 2 4.44518 2.16161 7.63659
23 1 7.15953 3.24598 8.29199
76 3 5.66418 1.97577 8.64722
119 5 6.33692 0.519321 6.95079
69 3 4.38443 3.62885 7.19674
73 3 7.92905 3.56659 11.398
1 1 6.67777 0.535203 10.4982
8 1 12.8581 1.17591 8.27379
48 3 10.4984 3.69883 9.34219
89 3 8.81866 0.859685 10.3971
66 3 12.2667 1.40864 10.0057
12 1 2.40047 6.83894 9.30447
44 3 1.08815 7.12016 7.96117
56 3 3.25815 8.10118 8.14783
42 2 3.82799 5.00187 9.12907
57 3 2.52939 4.95629 8.29717
94 3 4.48159 5.82579 7.965
92 3 0.430103 3.86498 9.84271
62 3 3.65769 6.08867 10.3161
43 3 4.16026 3.76649 9.95339
34 2 5.07259 6.64476 10.9271
133 5 6.49159 6.33194 7.62736
45 3 6.77939 4.65622 9.55381
27 1 5.83529 3.6806 10.701
18 1 8.16932 5.19134 10.5189
74 3 5.76716 7.05913 9.70296
28 1 8.0079 8.83838 10.2334
10 1 12.0752 4.64601 8.9509
118 4 9.07232 6.5857 7.73815
77 3 12.2345 6.6015 9.05132
135 5 11.5271 7.90764 7.4052
65 3 9.49686 6.78819 9.61927
80 3 9.5356 8.68324 11.3274
138 5 3.4983 10.3749 6.84431
54 3 1.30581 9.41341 7.64093
96 3 2.19495 10.8996 9.00293
60 3 4.23339 9.93339 9.66233
29 2 2.72573 10.0455 10.0041
7 1 5.175 11.8869 8.85448
9 1 8.75673 12.622 9.09216
158 6 5.25614 8.73453 7.64499
78 3 6.79255 11.7128 9.70166
31 2 7.2238 10.7963 8.52841
98 3 6.83316 9.4401 11.4135
140 6 11.5384 11.9847 7.5526
67 3 12.4453 11.4809 9.37702
14 1 0.234341 9.93759 9.12741
15 1 7.23885 11.013 12.0408
88 3 11.6395 8.96152 9.13316
146 6 10.1244 10.1233 8.10861
25 1 12.711 11.6436 11.2249
61 3 1.94964 3.96867 11.9337
36 2 3.90608 1.71837 12.1888
59 3 2.8781 1.42233 11.1016
71 3 3.29601 2.76965 13.1177
26 1 3.87381 4.82098 12.5381
21 1 1.56399 2.51622 12.7993
53 3 0.709146 13.1388 11.7614
93 3 5.39038 2.03019 11.5606
86 3 4.43149 0.520905 13.1891
41 2 8.5503 3.1548 13.0174
55 3 8.18783 4.37391 13.728
63 3 8.07779 1.69723 13.4383
95 3 10.0213 3.04643 12.452
22 1 9.49693 2.73904 10.4315
47 3 12.8882 2.18852 12.5388
40 2 12.6854 1.11814 11.5276
84 3 11.2977 0.434544 11.8776
24 1 10.982 4.51929 12.5655
16 1 9.49645 13.1176 11.7628
38 2 0.745349 4.71345 11.1862
4 1 2.08997 7.51438 11.7363
75 3 0.902599 6.08427 10.7258
51 3 3.8432 6.43682 13.2404
37 2 4.59638 7.69682 13.3435
85 3 4.67677 7.89988 11.7017
82 3 5.5118 5.4778 11.8684
11 1 7.06606 6.28485 13.2246
46 3 6.1136 7.60687 13.5523
90 3 8.08315 6.70141 11.6819
52 3 12.8985 8.24912 11.103
58 3 12.8958 4.78062 12.3611
17 1 12.1642 6.68763 10.9487
33 2 9.50719 6.91276 11.1553
72 3 10.4713 5.97248 11.7597
19 1 1.74718 12.6208 10.5913
3 1 2.81753 10.0015 13.21
35 2 0.0414437 9.24131 12.249
91 3 2.26804 8.57855 10.2745
2 1 4.73676 12.5083 12.0725
87 3 1.94482 10.9753 11.3326
64 3 1.35735 8.8853 12.9473
6 1 5.3225 9.8298 10.9712
81 3 4.38682 13.0446 9.71903
50 3 4.39971 10.7424 12.0849
13 1 6.26163 0.943109 13.2612
97 3 6.66267 12.7272 12.111
5 1 10.3548 10.1393 11.8311
49 3 9.03217 11.5955 11.3511
70 3 12.2125 10.301 12.2762
83 3 3.89362 8.75406 14.1078
143 6 4.7037 1.31564 35.0983
148 6 9.8725 0.670619 35.37
ITEM: TIMESTEP
8900
ITEM: NUMBER OF ATOMS
178
ITEM: BOX BOUNDS pp pp pp
0.0000000000000000e+00 1.3168533823700001e+01
0.0000000000000000e+00 1.3168533823700001e+01
0.0000000000000000e+00 3.5381309593600001e+01
ITEM: ATOMS id type x y z
149 6 2.41742 2.2707 1.79498
163 7 4.32757 3.8506 3.26702
101 4 4.19005 3.81556 0.448084
144 6 0.174376 3.88178 1.02547
167 7 0.0854084 1.22929 0.708104
104 4 8.91473 3.13772 0.491453
159 7 5.27738 1.46274 2.19604
166 7 7.01186 0.71734 0.296182
109 4 6.58922 2.85622 3.88177
171 7 8.56657 1.40959 2.64556
122 5 6.61762 3.59928 1.32586
151 6 12.9962 2.28259 3.71065
127 5 10.9525 2.80256 1.81515
116 4 11.6061 0.369232 2.48864
105 4 2.15543 5.08275 1.55636
120 5 2.60261 7.59987 1.67886
102 4 5.15773 6.30428 1.31639
123 5 8.26823 5.95441 1.08812
107 4 7.62399 8.09383 2.65509
124 5 12.8427 6.79349 1.7263
103 4 10.6651 5.27374 1.18843
172 7 8.92329 4.34611 3.16872
169 7 9.73427 6.8281 3.30358
132 5 11.8686 5.19251 3.58703
106 4 2.9765 13.0841 0.679169
128 5 3.10181 10.7359 1.91515
141 6 0.553806 11.6704 1.0446
113 4 1.18021 0.0990635 2.98274
161 7 0.699283 9.27408 2.68748
142 6 5.17155 8.80685 2.46261
100 4 5.72162 11.7985 1.77367
121 5 8.35249 11.9406 1.66189
145 6 9.96378 10.108 3.23875
125 5 12.5995 11.2076 3.41435
115 4 11.289 11.9514 0.933559
117 4 2.48094 4.4298 5.99619
130 5 1.7143 1.36209 5.6388
131 5 4.39115 2.03667 5.02508
134 5 8.2965 1.47863 5.77151
156 6 8.25855 4.25669 5.60397
177 7 12.7629 3.36251 6.08855
178 7 10.3776 2.51135 4.51423
175 7 12.447 0.346419 5.41656
30 2 10.3624 13.153 6.48335
160 7 10.3196 2.82376 7.39468
126 5 1.86007 4.21571 3.86009
136 5 2.86663 6.8928 6.26696
152 6 13.0886 6.6744 6.19293
168 7 1.24402 6.97495 3.93826
165 7 3.86983 6.37786 3.84542
112 4 5.17966 4.96628 5.64535
110 4 6.49772 5.7618 3.54518
173 7 7.83468 6.94061 5.48095
170 7 5.69278 8.02701 5.10018
174 7 7.51669 9.10444 7.53633
137 5 10.7273 5.29102 5.91047
150 6 11.7015 8.22955 4.20983
108 4 3.87171 13.0305 3.45064
153 6 0.428514 9.54597 5.56435
111 4 2.0528 11.4847 4.58845
164 7 3.01963 8.89413 4.29833
176 7 4.17876 12.7283 6.11385
99 4 1.26721 11.9696 6.7585
147 6 6.71161 12.9443 4.41821
129 5 7.26476 10.1706 4.06684
114 4 4.75926 10.6804 4.30118
155 6 8.75496 11.664 6.38451
162 7 5.97354 10.9421 6.42334
139 6 9.87915 12.4823 4.2358
154 6 9.49855 9.18331 5.589
157 6 11.4776 10.8153 5.82809
68 3 3.90377 1.60936 8.94895
79 3 1.77422 0.328564 8.81647
32 2 3.24101 0.265862 8.45834
20 1 2.50993 3.05199 9.58879
39 2 5.01706 1.89725 7.91263
23 1 7.20233 2.98845 7.73568
76 3 6.20871 1.84076 8.93269
119 5 6.66634 0.164106 7.47932
69 3 4.96243 3.25157 7.20368
73 3 8.09046 3.50457 10.9334
1 1 7.09855 0.875444 10.6387
8 1 0.206008 1.22307 8.18556
48 3 10.7004 3.5119 9.45469
89 3 8.85825 0.921679 10.5956
66 3 12.8582 1.5459 9.98117
12 1 2.13444 7.16935 9.24819
44 3 0.954043 7.05629 7.79507
56 3 3.25271 7.9971 8.29595
42 2 3.79348 5.12047 8.81227
57 3 2.43107 4.60053 8.44424
94 3 4.30901 5.90159 7.61801
92 3 0.597528 3.96028 9.78932
62 3 3.52892 6.29561 10.1521
43 3 4.50667 4.19543 9.63731
34 2 5.02027 6.76748 10.6741
133 5 6.68521 6.07407 7.34644
45 3 6.96463 4.53544 8.8061
27 1 6.20194 3.68333 10.2037
18 1 8.85503 4.47636 9.44337
74 3 5.72796 7.089 9.38815
28 1 8.27982 8.49838 10.5572
10 1 12.1145 4.57246 8.95996
118 4 9.16374 6.98203 7.61255
77 3 11.8249 6.33086 8.80492
135 5 11.4162 7.98709 7.23774
65 3 9.56449 6.68485 9.61929
80 3 9.86461 8.32924 11.4186
138 5 3.20139 10.2112 7.00981
54 3 1.10196 9.16735 7.42443
96 3 1.67671 10.8336 8.94326
60 3 3.90171 9.74294 9.43004
29 2 2.45794 9.95625 10.055
7 1 5.22661 11.0646 9.56306
9 1 9.40296 0.373512 8.96302
158 6 5.161 8.70884 7.87145
78 3 7.07477 12.2085 9.4703
31 2 7.69882 11.3313 8.3847
98 3 7.35572 9.82935 11.198
140 6 11.7163 12.0094 7.8443
67 3 12.878 11.7039 9.3941
14 1 0.314726 8.29993 9.31574
15 1 7.67776 11.6414 11.6145
88 3 11.7274 9.19606 9.17655
146 6 10.1851 10.0505 8.15491
25 1 12.5789 11.9447 11.2284
61 3 2.14824 4.74641 11.4447
36 2 3.78344 1.86444 12.0229
59 3 2.65057 2.45284 11.0663
71 3 3.7486 3.24125 12.988
26 1 4.13999 4.62831 12.1818
21 1 1.6819 2.91345 12.5779
53 3 0.758347 13.0547 11.7494
93 3 5.13275 2.0316 11.3145
86 3 3.55505 0.612754 12.8408
41 2 8.62929 3.13705 12.6194
55 3 8.39727 4.40905 13.22
63 3 8.01148 2.00167 13.2798
95 3 10.1691 2.89491 12.3859
22 1 10.0548 2.16302 10.7569
47 3 13.0422 2.30828 12.3586
40 2 12.9723 1.1126 11.5303
84 3 11.5281 0.417018 11.5287
24 1 11.2395 4.1361 12.1492
16 1 10.012 0.0529443 12.1841
38 2 0.852159 5.06055 10.773
4 1 2.37147 7.43346 12.0461
75 3 0.930386 6.60236 10.1169
51 3 3.16785 6.71723 13.4104
37 2 4.40887 7.64087 13.6357
85 3 4.53184 8.00633 11.5234
82 3 5.58934 5.49634 11.4613
11 1 6.89205 5.99242 12.7652
46 3 5.63711 6.91058 13.9084
90 3 8.08702 6.63821 11.5247
52 3 12.6008 8.26668 11.2179
58 3 13.0743 5.14302 12.0647
17 1 12.2521 6.45784 10.9733
33 2 9.52208 6.8289 11.0604
72 3 10.6733 5.90406 11.7443
19 1 1.94018 12.3295 10.0882
3 1 2.19136 10.029 13.4083
35 2 12.913 9.06274 12.5441
91 3 1.73839 8.66992 10.3605
2 1 4.69483 12.432 11.8048
87 3 2.3229 10.7404 11.4067
64 3 1.00225 8.58077 13.3458
6 1 5.86626 9.341 11.8834
81 3 4.05811 12.5436 9.87044
50 3 4.93748 10.7534 11.3717
13 1 6.34898 1.20394 13.1464
97 3 6.49426 12.8769 11.7722
5 1 10.6051 10.0156 11.7219
49 3 9.40942 11.453 12.1726
70 3 12.3152 10.4483 12.5673
83 3 3.69357 9.00207 13.8545
143 6 4.70654 1.38891 34.8726
148 6 9.85172 0.815511 0.016013
ITEM: TIMESTEP
9000
ITEM: NUMBER OF ATOMS
178
ITEM: BOX BOUNDS pp pp pp
0.0000000000000000e+00 1.3168533823700001e+01
0.0000000000000000e+00 1.3168533823700001e+01
0.0000000000000000e+00 3.5381309593600001e+01
ITEM: ATOMS id type x y z
149 6 2.66354 2.48584 1.80493
101 4 4.15701 3.80057 0.291887
144 6 0.100789 4.03432 1.16115
167 7 0.1371 1.08362 0.955374
151 6 0.0657699 2.27084 3.43372
106 4 3.07378 0.0338508 0.959085
113 4 1.2262 0.0976864 2.89793
163 7 4.53868 3.87936 3.1937
159 7 5.51501 1.51614 2.17975
166 7 7.28238 0.779614 0.340697
171 7 8.42438 1.45297 2.78253
122 5 6.56748 3.57256 1.09786
104 4 8.84619 3.32069 0.484358
127 5 10.9131 2.77309 1.71785
116 4 11.3447 0.387979 2.64011
172 7 9.09586 4.28238 3.23703
148 6 9.75949 0.904027 0.309787
105 4 2.61568 5.28909 1.50043
120 5 2.73586 7.75981 1.41981
102 4 5.17619 6.08558 1.24016
123 5 8.14477 6.02985 1.25018
107 4 7.55589 8.28553 2.6576
142 6 5.11682 8.59828 2.27497
110 4 6.68514 5.73216 3.49845
124 5 13.046 6.73318 1.90909
103 4 10.6261 5.29947 1.13975
169 7 9.68065 6.67944 3.44714
128 5 2.87728 10.9622 2.05994
141 6 0.488659 11.5087 0.818935
161 7 0.780915 9.24718 2.55333
100 4 5.55 11.9899 1.8653
121 5 8.36979 12.0524 1.83305
145 6 10.083 10.0036 3.19116
125 5 12.5855 11.2788 3.1855
115 4 11.1371 11.9276 0.87333
117 4 2.64833 4.15173 5.90286
130 5 2.05209 1.2873 5.54282
126 5 1.65206 4.28732 3.95615
108 4 3.68407 0.270557 3.5736
109 4 6.82265 3.02959 4.06197
131 5 4.79438 2.26992 5.38769
134 5 8.49604 1.30414 5.9658
156 6 8.16569 4.27356 5.91994
177 7 12.8444 3.50041 5.90139
178 7 10.6183 2.57191 4.76676
175 7 12.5884 0.0819446 5.34349
30 2 10.4692 0.136342 6.58647
136 5 3.01859 6.6095 6.0881
168 7 1.20016 6.82358 4.01743
165 7 3.76093 6.25656 3.71569
112 4 5.39857 4.96218 5.66332
173 7 8.05557 6.77059 5.38758
170 7 5.43635 8.20249 5.24218
132 5 12.0276 5.06969 3.73993
152 6 13.0547 6.36158 6.06799
137 5 10.4548 5.26795 6.17666
150 6 11.6313 8.29762 4.17579
153 6 0.235467 9.36716 5.58056
111 4 1.81365 11.4332 4.7276
164 7 2.92038 8.96032 4.10639
176 7 4.12836 12.8051 6.29303
99 4 1.00321 12.063 6.88914
138 5 3.24212 10.3849 6.78776
147 6 6.64923 13.0172 4.60109
129 5 7.13008 10.3256 3.91213
114 4 4.6858 10.9912 4.0841
155 6 8.60735 11.4965 6.18152
162 7 5.82319 10.821 6.65027
139 6 9.70051 12.3186 4.31213
154 6 9.40358 9.13604 5.43915
157 6 11.3796 10.8201 5.75552
68 3 3.49383 1.79291 8.35578
79 3 1.6977 0.0842578 8.43281
32 2 3.27849 0.095476 8.32249
20 1 1.58803 2.39413 9.35509
92 3 0.389705 4.38582 9.46066
43 3 4.17787 4.28493 10.1022
59 3 2.68856 2.0539 10.5304
39 2 4.90518 2.1362 7.92457
23 1 6.9709 2.9671 8.16085
76 3 5.94503 1.60689 8.86911
119 5 6.61248 0.0723923 7.40332
69 3 5.135 3.46356 7.32945
27 1 6.08962 3.96168 10.4722
160 7 10.1688 2.65632 7.31502
8 1 12.9146 1.30769 8.09929
48 3 10.4673 3.73691 9.14292
89 3 9.11718 0.826696 10.5629
66 3 13.157 1.68085 9.96759
22 1 10.5723 2.14151 10.5446
12 1 2.15925 7.50362 8.92947
44 3 1.37467 6.52861 7.61206
56 3 3.11877 8.1746 7.49818
42 2 3.74792 5.0477 8.89482
57 3 2.56885 4.65807 8.181
62 3 3.47332 6.49163 9.87172
75 3 0.636593 6.40214 10.4913
91 3 1.95128 8.59787 10.4731
94 3 4.60824 5.73278 7.84576
133 5 6.70207 6.36815 7.47785
45 3 6.80671 4.90455 8.94855
74 3 6.10382 7.29328 9.66188
28 1 7.4984 8.47849 10.1838
158 6 5.37247 8.68042 7.98622
18 1 9.11882 4.60759 9.95367
10 1 11.8136 5.13301 8.69424
118 4 9.17979 7.06804 7.66055
77 3 11.8791 7.24618 9.0602
135 5 11.6098 8.2154 7.13675
65 3 9.07317 6.56325 9.50369
54 3 0.726922 8.99413 7.71547
96 3 1.75022 10.6098 9.07873
60 3 4.09011 9.46706 9.74815
29 2 2.74983 9.91674 9.99987
14 1 0.0163294 8.9264 9.63898
19 1 1.51377 11.8449 10.4572
81 3 4.15129 12.7464 9.51873
174 7 7.55155 8.83377 7.10337
7 1 5.24892 11.2056 9.07969
78 3 7.57015 11.4371 9.67457
31 2 7.38002 10.66 8.40168
9 1 9.08947 13.044 9.07016
140 6 11.637 12.0173 7.95863
67 3 12.4702 11.9739 9.8007
88 3 11.7459 9.97321 8.84817
146 6 10.0475 10.0195 7.96374
36 2 3.57605 2.00206 11.6108
71 3 3.3881 2.89539 12.7915
21 1 1.76661 3.56827 12.7367
86 3 3.96899 0.601641 12.3058
47 3 0.647423 2.43038 12.396
40 2 0.126964 1.34112 11.4986
73 3 7.9014 3.19555 10.725
1 1 7.39968 1.35362 10.964
93 3 5.21113 2.47652 11.4071
41 2 8.4819 3.30512 12.343
63 3 7.90336 1.99047 12.8701
13 1 6.12916 1.41477 13.1405
95 3 9.92146 3.19077 12.0438
84 3 11.5517 0.940375 11.9765
24 1 11.3921 4.13519 12.956
16 1 9.63579 0.548586 12.485
61 3 2.07783 4.66462 11.4605
26 1 4.2496 4.46844 12.0503
38 2 0.6566 4.85725 10.8011
4 1 2.24566 6.94498 11.3168
51 3 3.00981 6.99654 13.1384
34 2 5.03493 6.76783 10.64
55 3 7.77164 4.55756 12.9454
37 2 4.4311 7.46084 13.5418
85 3 4.78152 8.03721 11.3857
82 3 5.44295 5.61262 11.4718
11 1 7.09779 6.11547 13.2022
90 3 7.68186 6.67515 11.4053
80 3 9.80901 8.26913 11.1213
52 3 12.4471 8.1864 11.7731
58 3 12.7555 4.67111 12.0031
17 1 11.8898 6.75396 10.9352
33 2 9.21531 6.88433 10.9846
72 3 10.0824 5.83236 11.469
53 3 0.849499 13.0607 11.5094
3 1 2.63212 9.51085 12.8012
87 3 2.64344 10.7115 11.2617
64 3 0.998253 9.52383 12.989
83 3 4.34693 9.12169 13.611
98 3 7.65228 9.57283 11.8206
15 1 7.57778 11.5341 11.4815
2 1 4.87995 12.3742 11.5728
6 1 5.90915 9.31981 11.9108
50 3 5.627 10.9317 11.2845
97 3 6.81972 13.1433 12.1528
25 1 11.4783 12.1183 11.4354
35 2 12.8032 9.51888 12.4675
5 1 9.30562 9.866 12.0259
49 3 9.41597 11.7087 12.2539
70 3 11.8274 10.5705 12.3464
46 3 5.57768 6.57656 14.1717
143 6 4.61244 1.58819 35.0848
ITEM: TIMESTEP
9100
ITEM: NUMBER OF ATOMS
178
ITEM: BOX BOUNDS pp pp pp
0.0000000000000000e+00 1.3168533823700001e+01
0.0000000000000000e+00 1.3168533823700001e+01
0.0000000000000000e+00 3.5381309593600001e+01
ITEM: ATOMS id type x y z
149 6 2.48518 2.34514 1.95503
101 4 4.28621 3.91204 0.408705
144 6 0.168758 4.12879 0.992944
167 7 12.9529 1.10775 0.83558
151 6 13.1665 2.14081 3.56863
106 4 2.90485 0.0515305 0.853336
113 4 1.16314 12.9952 2.76442
163 7 4.4038 3.91038 3.26559
159 7 5.45814 1.52556 2.43001
166 7 7.21932 1.01551 0.377171
171 7 8.71195 1.65278 2.71875
122 5 6.79605 3.78274 1.43933
104 4 9.1626 3.43424 0.442674
127 5 11.0944 2.98529 1.90623
116 4 11.2424 0.370886 2.46614
172 7 9.16745 4.29346 3.54005
148 6 9.9007 0.86075 0.173642
105 4 2.23751 5.32123 1.30278
120 5 2.67707 7.70762 1.55878
102 4 5.32805 6.29273 1.19504
123 5 8.36819 6.04242 1.18494
107 4 7.79745 8.02718 2.74615
142 6 5.19715 8.81866 2.48979
110 4 6.66091 5.86411 3.31623
124 5 12.9728 6.81457 1.70239
103 4 10.7291 5.45459 0.970207
169 7 9.92467 6.77786 3.1107
128 5 2.84224 10.9032 2.14794
141 6 0.64539 11.514 0.519099
161 7 0.673125 9.2217 2.3513
100 4 5.46928 12.0504 1.89751
121 5 8.24073 12.3302 2.11172
145 6 9.91207 10.1028 2.8439
125 5 12.5739 11.0959 3.3281
115 4 11.1377 11.806 0.895961
117 4 3.01639 3.88662 5.72682
130 5 1.79535 1.56901 5.75858
126 5 1.76743 4.46191 3.85576
108 4 3.66995 0.266632 3.72714
109 4 6.9096 3.21783 3.85994
131 5 5.07028 2.20201 5.44235
134 5 8.22423 1.54408 5.97313
156 6 8.18133 3.95175 6.20455
177 7 13.0556 3.38978 5.98607
178 7 10.639 2.24767 4.76763
175 7 12.4764 0.244991 5.43349
30 2 10.4277 0.344463 6.67077
136 5 2.83624 6.55902 6.19176
168 7 1.32859 7.10316 4.06491
165 7 3.94291 6.39368 3.59039
112 4 5.43401 5.23323 5.71924
173 7 8.04502 6.59436 5.42624
170 7 5.43961 8.12731 5.09363
132 5 12.0407 4.84526 3.52699
152 6 13.1609 6.06505 6.06992
137 5 10.6119 5.36315 5.59652
150 6 11.9352 8.151 4.14279
153 6 0.419464 9.41119 5.69196
111 4 1.94919 11.7785 4.82367
164 7 2.88242 8.87553 4.26011
176 7 4.06001 12.8629 6.23498
99 4 1.05358 12.076 6.93856
138 5 3.22657 9.79231 6.75129
147 6 6.50008 12.9387 4.47425
129 5 7.34027 10.1128 4.04026
114 4 4.49404 10.8717 4.26502
155 6 8.41387 11.4629 6.341
162 7 5.78046 10.9272 6.40158
139 6 9.85875 12.2823 4.6249
154 6 9.82859 9.013 5.3147
157 6 11.4332 10.7524 5.5254
68 3 2.96638 1.93787 8.79029
79 3 1.3347 0.247612 9.29488
32 2 2.6923 0.661419 9.72959
20 1 1.84342 3.3067 9.39549
92 3 0.201431 4.30592 9.22024
43 3 4.11213 4.08254 9.9886
59 3 2.92694 1.60904 11.045
39 2 4.36045 2.04883 8.10922
23 1 6.43828 3.42538 8.1495
76 3 5.53611 1.60063 9.17257
119 5 6.24278 0.425992 7.47226
69 3 4.72618 3.45411 7.62955
27 1 5.81647 3.84827 10.8339
160 7 10.123 2.64289 7.58258
8 1 12.6694 0.880541 8.73036
48 3 10.6221 3.36831 9.35923
89 3 8.98312 1.12639 10.252
66 3 12.8785 1.66032 10.5542
22 1 10.9153 1.86489 10.5855
12 1 1.93431 7.4865 9.09814
44 3 1.28293 6.37854 7.55602
56 3 3.15249 8.11433 7.79203
42 2 3.84376 5.35953 9.32554
57 3 2.60555 4.86846 8.52865
62 3 3.17237 6.33015 10.365
75 3 0.735631 6.45728 10.1131
91 3 1.98213 8.78438 10.415
94 3 4.40536 6.01192 7.86949
133 5 6.48017 6.30512 7.67562
45 3 6.47361 4.73664 9.29521
74 3 5.37315 7.12635 9.56453
28 1 7.47197 8.65647 10.7692
158 6 5.32204 8.7359 7.95391
18 1 8.76379 4.23595 10.0614
10 1 11.6822 4.77988 8.37405
118 4 9.22715 6.84397 7.54204
77 3 11.8069 7.54258 9.32017
135 5 11.7644 7.99092 7.22972
65 3 9.00401 6.33148 9.59054
54 3 0.764559 8.99834 7.75178
96 3 1.65849 10.705 9.07334
60 3 4.05675 9.88083 9.28491
29 2 2.65305 10.0454 10.0768
14 1 0.108634 8.67055 9.73726
19 1 0.655347 11.7293 10.4833
81 3 3.60275 12.6956 9.64285
174 7 7.52082 8.87073 6.76033
7 1 4.40181 11.5461 8.74989
78 3 7.71445 10.5539 9.76634
31 2 7.34756 10.4443 8.39103
9 1 8.86193 12.8695 8.63625
140 6 11.3851 11.6001 7.69309
67 3 12.025 12.7005 9.48229
88 3 11.4198 10.1245 9.10056
146 6 9.96787 9.94834 7.70803
36 2 3.90316 1.91858 12.3926
71 3 3.16029 3.05799 12.8237
21 1 1.22625 3.473 12.967
86 3 4.28559 0.637153 13.1628
47 3 13.0793 2.441 12.9105
40 2 12.9454 0.974478 11.932
73 3 7.51938 3.09891 10.9356
1 1 7.17427 1.36305 10.3581
93 3 5.33947 2.39298 11.9005
41 2 8.18853 3.17974 12.4472
63 3 7.75115 1.77756 13.014
13 1 6.16066 0.968426 13.0864
95 3 9.67491 3.36999 11.9691
84 3 11.027 0.454614 11.8279
24 1 10.9549 4.65918 12.3594
16 1 9.14537 0.390085 11.8955
61 3 1.58953 4.61399 11.5268
26 1 3.52548 4.65374 11.9649
38 2 0.385675 5.1294 10.4786
4 1 2.12492 7.26015 11.4543
51 3 2.94422 7.52016 13.1007
34 2 4.93774 6.84206 10.9932
55 3 7.63486 4.44374 13.2055
37 2 4.335 7.87454 13.6637
85 3 4.99872 8.26052 11.4892
82 3 4.9955 5.62235 11.657
11 1 6.77943 5.94951 12.9156
90 3 7.91132 7.21811 11.7571
80 3 9.57894 8.67655 10.5813
52 3 12.9156 8.44227 12.2802
58 3 12.4329 5.27941 11.5651
17 1 12.0104 7.03333 11.3719
33 2 9.22493 7.04113 10.9385
72 3 10.3143 6.38872 11.8435
53 3 0.513359 12.9678 11.7337
3 1 2.66959 10.4779 13.2641
87 3 3.06788 10.782 11.2526
64 3 0.82775 10.6161 13.0025
83 3 4.09034 9.40901 13.817
98 3 7.74046 10.0842 12.5607
15 1 7.46167 11.8625 11.4938
2 1 4.39832 12.1456 11.833
6 1 5.86809 9.64231 12.6022
50 3 5.67615 10.9246 11.3724
97 3 6.48745 0.0531794 11.1286
25 1 11.06 11.9794 11.0846
35 2 12.7652 9.8973 12.7052
5 1 9.35837 10.1388 11.4827
49 3 9.13003 11.9691 11.6622
70 3 11.461 10.5745 12.0804
46 3 5.43679 6.96526 13.6779
143 6 4.92182 1.40156 35.2549
ITEM: TIMESTEP
9200
ITEM: NUMBER OF ATOMS
178
ITEM: BOX BOUNDS pp pp pp
0.0000000000000000e+00 1.3168533823700001e+01
0.0000000000000000e+00 1.3168533823700001e+01
0.0000000000000000e+00 3.5381309593600001e+01
ITEM: ATOMS id type x y z
149 6 2.36889 2.41084 1.8252
101 4 4.32148 3.5633 0.811011
144 6 0.220072 3.69394 0.850526
167 7 12.8916 1.10583 0.650829
151 6 13.0822 2.17542 3.59203
106 4 2.92133 13.1314 0.752506
113 4 1.03485 0.147711 2.84942
163 7 4.29147 3.99492 3.24486
159 7 5.48479 1.5866 2.51674
166 7 7.47042 1.15531 0.595113
171 7 8.61343 1.81707 2.87082
122 5 6.82383 3.65367 1.27809
104 4 9.13215 3.44273 0.492896
127 5 11.0785 2.80131 2.02125
116 4 11.2579 0.303374 2.66956
172 7 9.27613 4.54605 3.25522
148 6 10.1073 0.853763 0.158117
105 4 2.4424 5.15435 1.54769
120 5 2.90508 7.88011 1.63696
102 4 5.22185 6.38895 1.35767
123 5 8.42925 5.95726 1.19666
107 4 7.67161 8.1013 2.63956
142 6 5.27717 8.97896 2.38567
110 4 6.60665 5.90935 3.24863
124 5 12.8443 6.89188 1.59568
103 4 10.9748 5.18128 1.0638
169 7 10.0537 7.02795 2.94463
128 5 2.86291 10.8796 2.10166
141 6 0.72185 11.7199 0.558438
161 7 0.68378 9.22213 2.07039
100 4 5.50615 12.0706 1.87411
121 5 8.47605 12.2018 1.90158
145 6 10.1595 10.0993 3.08791
125 5 12.7816 11.1795 3.0741
115 4 11.1447 11.7472 0.878917
117 4 3.05093 3.87263 5.63421
130 5 1.91044 1.15904 5.5503
126 5 1.51385 4.45136 3.8249
108 4 3.44099 0.103516 3.47636
109 4 6.90971 3.38716 4.14501
131 5 4.99735 1.84407 5.33673
134 5 8.17538 1.31552 5.87819
156 6 8.33735 4.08213 6.20873
177 7 12.8498 3.16448 6.03398
178 7 10.4442 2.38986 4.92978
175 7 12.4844 0.0870875 5.52133
30 2 10.3747 0.388534 6.658
136 5 2.92052 6.38695 6.23157
168 7 1.25831 7.09078 3.68372
165 7 3.81652 6.42138 3.77917
112 4 5.48131 5.04194 5.68439
173 7 8.17281 6.45919 5.17803
170 7 5.65435 7.99564 5.17683
132 5 12.3177 5.18184 3.46166
152 6 0.243202 6.09902 5.98466
137 5 10.8508 5.04925 5.86999
150 6 12.0396 8.23934 4.17872
153 6 0.586067 9.49185 5.99315
111 4 1.76444 11.5417 4.77253
164 7 2.93806 9.10208 4.29397
176 7 3.85075 12.8488 6.37772
99 4 1.08938 11.9644 7.26543
138 5 3.18956 10.2937 6.95981
147 6 6.71744 12.8531 4.4561
129 5 7.25218 10.3059 4.10487
114 4 4.70013 11.0225 4.18929
155 6 8.59649 11.3807 6.3463
162 7 5.83857 10.9819 6.61504
139 6 9.88989 12.2679 4.54928
154 6 9.6063 8.94521 5.27367
157 6 11.6805 10.5913 5.25013
68 3 2.90078 2.13646 9.36512
79 3 1.24436 0.37164 9.53891
32 2 2.64595 0.897205 10.0838
20 1 1.50317 3.51983 9.28526
92 3 12.9257 4.6123 9.25323
43 3 4.09721 4.16896 10.1573
59 3 2.50775 1.3926 11.5365
39 2 3.91469 1.87211 8.16417
23 1 6.12586 3.20589 7.82096
76 3 5.40551 1.90796 8.97096
119 5 6.33616 0.207544 7.28639
69 3 3.7494 3.11277 7.41193
27 1 5.67894 4.22475 10.9796
160 7 10.1533 2.66607 7.45544
8 1 12.6716 0.90162 8.96123
48 3 10.3491 3.84771 9.12773
89 3 9.49451 1.21816 10.127
66 3 12.2306 2.08532 10.7995
22 1 10.5527 2.69782 10.7035
12 1 1.9896 7.43876 9.14088
44 3 1.14919 7.15853 7.52053
56 3 3.18193 8.19096 7.65796
42 2 3.73069 5.29084 9.16709
57 3 2.33107 5.426 8.67561
62 3 3.52002 6.80777 10.0956
75 3 0.74618 6.62544 10.592
91 3 1.7761 8.80934 10.4957
94 3 4.43 5.78528 7.83831
133 5 6.54852 6.31737 7.49332
45 3 6.34618 4.82595 9.10835
74 3 5.86002 7.64201 9.67902
28 1 7.68235 8.80247 9.15135
158 6 5.19507 8.77437 7.8097
18 1 8.15782 4.55235 9.79476
10 1 11.774 5.09425 8.24933
118 4 9.29805 6.6763 7.64118
77 3 11.641 7.78045 9.16227
135 5 11.7941 7.91703 7.05827
65 3 9.48986 5.95665 10.1364
54 3 0.483376 9.28618 8.1703
96 3 1.22619 10.9454 9.2778
60 3 3.31664 10.0596 9.17494
29 2 2.08437 10.2928 10.29
14 1 12.9351 8.93379 10.2473
19 1 0.746974 12.1066 10.8109
81 3 3.89087 0.0112336 10.1752
174 7 7.53988 8.67672 6.76662
7 1 5.13414 10.9419 9.76585
78 3 6.94531 10.6619 9.79566
31 2 7.36254 10.7847 8.30037
9 1 8.83699 0.185804 8.95472
140 6 11.2544 11.5392 7.48536
67 3 12.2535 12.3693 9.35176
88 3 11.4252 10.0093 8.89851
146 6 9.83336 9.52573 7.7447
36 2 3.66229 1.98889 12.5764
71 3 2.76198 2.96564 13.3274
21 1 1.13661 2.82593 12.4721
86 3 4.28789 0.842295 13.379
47 3 12.9163 2.39363 13.3038
40 2 12.1923 1.48363 12.2589
73 3 7.4513 3.43722 10.9908
1 1 6.31373 1.65936 10.3829
93 3 4.96879 2.57439 11.8263
41 2 8.0884 3.37943 12.509
63 3 7.88217 1.94839 12.813
13 1 5.92162 1.68693 13.2567
95 3 9.72163 3.79616 12.3895
84 3 10.7967 0.930925 12.4336
24 1 10.1975 5.34335 12.2103
16 1 8.39658 0.538023 11.642
61 3 1.3145 4.30504 11.356
26 1 3.27638 4.84791 11.6866
38 2 0.108865 5.11679 10.8028
4 1 1.53753 7.64422 11.9723
51 3 2.982 7.20391 13.1977
34 2 5.14228 7.14153 10.8763
55 3 7.33889 4.30216 13.2638
37 2 4.16479 8.16765 13.4623
85 3 4.59873 8.27638 11.8737
82 3 5.16451 5.83608 11.776
11 1 6.48856 6.20963 13.2376
90 3 7.61235 6.73284 11.6866
80 3 8.93025 8.74028 10.3987
52 3 12.4792 8.49154 11.8064
58 3 11.9162 5.30481 11.6033
17 1 11.52 7.17729 11.0679
33 2 9.05395 7.09356 11.1194
72 3 10.0651 7.19051 12.3319
53 3 13.1001 0.158207 11.8891
3 1 1.98344 10.7315 13.3813
87 3 2.07747 10.938 11.6393
64 3 0.250081 10.0869 13.5639
83 3 3.5256 9.69464 13.5805
98 3 7.41959 9.93719 12.4687
15 1 7.18255 11.2696 11.2701
2 1 4.79029 13.0554 11.6633
6 1 5.56948 9.8257 12.7022
50 3 5.0451 10.9661 11.4799
97 3 6.50304 0.0963821 11.4508
25 1 10.8162 12.7939 10.7886
35 2 12.3488 9.8955 12.6383
5 1 9.20223 10.0281 11.585
49 3 9.1353 11.7462 11.1613
70 3 11.5172 10.6453 11.5474
46 3 5.45454 7.89492 14.1698
143 6 4.76538 1.27153 0.0555216
ITEM: TIMESTEP
9300
ITEM: NUMBER OF ATOMS
178
ITEM: BOX BOUNDS pp pp pp
0.0000000000000000e+00 1.3168533823700001e+01
0.0000000000000000e+00 1.3168533823700001e+01
0.0000000000000000e+00 3.5381309593600001e+01
ITEM: ATOMS id type x y z
149 6 2.62842 2.34791 1.8567
101 4 4.2695 3.77718 0.268337
144 6 0.222331 3.88707 1.07932
167 7 13.0571 1.15712 0.869005
151 6 12.9715 2.19672 3.60947
106 4 2.78793 13.145 0.750989
113 4 1.21482 0.0675041 2.82672
163 7 4.45114 3.93543 3.41889
159 7 5.62872 1.69287 2.59004
166 7 7.37863 0.894976 0.651141
171 7 8.50069 1.46568 2.99095
122 5 6.69207 3.77821 1.52191
104 4 8.86741 3.30414 0.430882
127 5 10.9447 2.8428 1.84412
116 4 11.3894 0.189985 2.69155
172 7 9.22926 4.55504 3.24799
148 6 9.93047 0.956708 0.261387
105 4 2.24108 5.32458 1.4209
120 5 2.92708 7.6937 1.32597
102 4 4.89128 5.9546 1.1329
123 5 8.34987 6.14351 1.12993
107 4 7.78674 8.15231 2.52223
142 6 5.1356 8.88957 2.48103
110 4 6.4808 6.09665 3.28095
124 5 13.1392 6.66186 1.3245
103 4 10.6986 5.28452 0.741142
169 7 10.1603 7.15875 2.84666
128 5 2.87244 10.8009 2.16898
141 6 0.612395 11.7257 0.555369
161 7 0.780142 9.16888 1.69242
100 4 5.92311 11.9998 1.89808
121 5 8.60653 12.1588 1.98126
145 6 10.2079 10.0679 3.03719
125 5 12.9096 10.9219 3.33543
115 4 11.3459 11.7367 0.844954
117 4 2.88062 3.97092 5.84697
130 5 1.82732 1.46214 5.61646
126 5 1.60647 4.35605 3.81951
108 4 3.99436 13.1002 3.42331
109 4 7.0725 3.39984 4.15958
131 5 4.87415 2.05957 5.23398
134 5 8.24396 1.4871 6.23987
156 6 8.44813 4.19215 6.19892
177 7 12.784 3.21864 6.18861
178 7 10.4069 2.52393 4.65881
175 7 12.5617 13.1246 5.32084
30 2 10.2246 0.205264 6.47084
136 5 2.78793 6.89647 6.25425
168 7 1.28625 7.1626 3.63312
165 7 3.76684 6.37245 3.83621
112 4 5.43825 5.07532 5.59759
173 7 8.31627 6.47018 4.93436
170 7 5.5633 8.19739 4.96311
132 5 12.052 5.06171 3.45166
152 6 0.330568 6.19634 5.77412
137 5 10.8104 5.35845 5.6716
150 6 12.1141 8.4073 4.26646
153 6 0.631804 9.28182 6.10259
111 4 2.03482 11.6999 4.92709
164 7 2.88992 9.02097 4.32088
176 7 4.09709 12.8141 6.33447
99 4 0.908077 12.2476 7.01091
138 5 3.21052 10.3357 7.26445
147 6 6.87598 12.8899 4.52352
129 5 7.33218 10.2077 3.83382
114 4 4.60744 10.8878 4.43575
155 6 8.52334 11.2304 6.1975
162 7 5.93608 10.8061 6.48943
139 6 9.81742 12.2517 4.54411
154 6 9.59691 8.99273 5.32274
157 6 11.6174 10.5862 5.65508
68 3 2.85314 2.01102 9.41688
79 3 1.06791 0.289141 9.5761
32 2 2.35458 0.880942 10.31
20 1 1.64826 3.65124 8.65871
92 3 0.274356 4.4269 9.53635
43 3 4.03171 4.8056 9.82151
59 3 2.61248 1.27348 11.9375
39 2 4.0966 2.07265 8.25197
23 1 6.1524 3.15865 7.67528
76 3 5.39227 1.75131 8.95092
119 5 6.37181 0.207712 7.33602
69 3 4.07644 3.50493 7.66463
27 1 5.86708 4.59172 10.8209
160 7 10.3026 2.73522 7.53298
8 1 12.752 0.984451 9.01168
48 3 10.1419 3.33146 9.5527
89 3 8.81203 1.13992 10.4125
66 3 12.0389 1.65457 10.7471
22 1 10.2698 2.11972 10.8831
12 1 1.44331 7.50466 9.35445
44 3 0.952627 7.40893 7.28607
56 3 2.77481 8.34201 7.63431
42 2 3.56225 5.7992 8.98683
57 3 2.26882 5.75318 8.07755
62 3 3.2525 7.17113 9.59948
75 3 0.968663 6.53171 10.9025
91 3 1.52678 8.9189 10.6735
94 3 4.39161 6.12842 7.73587
133 5 6.80409 6.22694 7.40688
45 3 6.5495 4.69032 9.00123
74 3 5.71228 7.56538 9.59758
28 1 7.06543 8.75618 10.0508
158 6 5.00441 8.6227 7.75546
18 1 8.51206 4.1494 9.71428
10 1 11.1898 5.24662 9.35019
118 4 9.30376 6.76134 7.33213
77 3 12.2112 6.84644 9.08772
135 5 11.8826 7.73364 7.08803
65 3 9.59104 6.32493 10.2792
54 3 0.402516 9.0828 8.29781
96 3 1.16968 11.1348 9.04204
60 3 3.36989 10.1173 9.34155
29 2 1.97105 10.332 10.1579
14 1 12.9746 8.49801 9.80653
19 1 13.1293 12.1181 10.3333
81 3 3.52506 13.0647 10.2803
174 7 7.43103 8.58548 6.95629
7 1 4.86113 11.8047 9.70018
78 3 7.51681 10.7223 9.806
31 2 7.2803 10.5793 8.33455
9 1 8.99841 13.0915 8.83097
140 6 11.078 11.5532 7.65609
67 3 11.621 12.6154 9.43351
88 3 11.2471 9.877 9.4004
146 6 10.1722 9.40714 7.91897
36 2 3.73789 2.25869 12.5503
71 3 3.2643 3.57873 13.3734
21 1 1.17977 2.99 13.1685
86 3 4.32394 1.30131 13.5314
47 3 12.5359 2.4082 13.2079
40 2 12.005 1.18759 12.2063
73 3 7.23225 3.27045 10.9986
1 1 6.58192 1.74412 10.4042
93 3 4.75031 2.73215 11.4112
41 2 7.99764 3.52215 12.4377
63 3 7.98444 2.25943 13.3436
13 1 6.03299 2.68052 13.5293
95 3 9.28675 4.12307 12.2237
84 3 10.5274 0.818605 12.4556
24 1 10.5498 5.44975 12.4346
16 1 8.30868 0.372553 12.4221
61 3 1.16805 4.12598 11.7766
26 1 3.25924 4.95689 11.5153
38 2 0.222025 5.10794 11.0205
4 1 1.10896 7.71771 12.3575
51 3 2.64943 6.68252 12.6905
34 2 4.44768 7.56805 10.5442
55 3 6.52247 4.39185 12.8984
37 2 3.47053 8.0344 13.0739
85 3 3.93913 8.63181 11.5353
82 3 4.90761 6.39407 11.3677
11 1 5.8971 6.09307 12.872
90 3 7.49089 7.1174 11.7479
80 3 9.24258 8.56506 10.6128
52 3 12.2616 8.56999 11.5935
58 3 11.9626 5.31993 11.406
17 1 11.2946 7.31692 10.6659
33 2 8.87806 7.32795 11.3646
72 3 9.83129 7.05755 12.4592
53 3 12.8665 13.0707 12.0501
3 1 1.71131 10.6447 13.2763
87 3 2.07524 11.1492 11.4014
64 3 13.0878 9.98666 13.5338
83 3 2.54414 9.05576 13.6075
98 3 7.32784 9.81 12.0964
15 1 7.03049 11.5731 11.6501
2 1 4.7626 12.9511 12.3093
6 1 5.5788 9.68994 12.2251
50 3 5.09539 11.3881 11.533
97 3 6.35545 0.336771 11.7203
25 1 10.3403 12.8126 10.8687
35 2 11.9396 9.83441 12.6113
5 1 9.03618 10.2781 11.5351
49 3 8.99277 12.0308 11.7807
70 3 11.0767 10.6988 11.7137
46 3 4.86847 7.75297 13.6929
143 6 4.85668 1.03433 0.203651
ITEM: TIMESTEP
9400
ITEM: NUMBER OF ATOMS
178
ITEM: BOX BOUNDS pp pp pp
0.0000000000000000e+00 1.3168533823700001e+01
0.0000000000000000e+00 1.3168533823700001e+01
0.0000000000000000e+00 3.5381309593600001e+01
ITEM: ATOMS id type x y z
149 6 2.6215 2.22167 2.27509
101 4 4.30323 3.10075 0.522135
144 6 0.15362 3.86962 1.03938
167 7 0.101596 1.29952 1.0092
151 6 0.00776007 2.24177 3.66454
106 4 2.61226 13.0923 0.757751
113 4 1.19121 13.1149 3.16843
163 7 4.35023 3.95535 3.19312
159 7 5.69844 1.66741 2.66191
166 7 7.22719 0.697368 0.562886
171 7 8.77576 1.49205 2.80883
122 5 6.58657 3.79252 1.28206
104 4 8.88837 3.1142 0.714931
127 5 10.9652 2.8737 1.86262
116 4 11.4563 0.330564 2.57467
172 7 9.13608 4.56202 3.2717
148 6 9.87952 0.669872 0.256509
105 4 2.46369 4.92857 1.35151
120 5 2.80366 7.65893 1.45119
102 4 5.07075 6.08376 0.984451
123 5 8.19305 6.11469 1.21074
107 4 7.80249 8.38142 2.46531
142 6 5.1294 8.70322 2.3197
110 4 6.361 5.96542 3.05191
124 5 12.7675 6.84142 1.46948
103 4 10.5934 5.30197 0.9207
169 7 10.2737 6.9919 2.76016
128 5 2.98933 10.8732 2.14521
141 6 0.678192 11.6074 0.738533
161 7 0.714267 9.10373 1.48939
100 4 5.71714 11.7809 2.20672
121 5 8.61988 11.888 1.95923
145 6 10.273 10.0875 3.12182
125 5 0.137001 10.6968 3.45874
115 4 11.3611 11.733 1.09969
117 4 2.71946 4.52817 5.94286
130 5 2.16295 1.58002 5.38396
126 5 1.66277 4.40674 3.98491
108 4 3.80043 0.289304 3.50948
109 4 7.11998 3.55258 4.23591
131 5 5.0575 2.35282 5.41329
134 5 8.33822 1.45062 5.90957
156 6 8.61607 4.17472 6.2841
177 7 12.7947 3.4366 5.89409
178 7 10.4095 2.41157 4.72146
175 7 12.4508 0.302993 5.35761
30 2 10.2823 0.4439 6.72663
136 5 2.92409 6.91031 6.01194
168 7 1.13267 7.18818 3.43429
165 7 3.68862 6.42968 3.51541
112 4 5.32367 5.39232 5.55828
173 7 7.96495 6.68896 4.85027
170 7 5.59899 8.01498 5.11912
132 5 12.0889 5.11298 3.39592
152 6 0.215507 6.05836 5.78973
137 5 10.7377 5.35097 5.39727
150 6 11.9798 8.26756 4.19463
153 6 0.609837 9.39365 5.97988
111 4 2.02614 11.9314 5.13463
164 7 2.60304 9.14238 4.1255
176 7 4.27569 13.0183 6.17159
99 4 0.936495 12.1573 7.12139
138 5 3.23771 10.5602 6.86257
147 6 6.74005 12.8966 4.64278
129 5 7.44335 10.0429 4.1402
114 4 4.71655 10.8162 4.29108
155 6 8.73115 11.285 6.47236
162 7 5.94143 10.8305 6.62298
139 6 10.0562 12.1891 4.77596
154 6 9.8694 8.8954 5.40144
157 6 11.706 10.7545 5.88222
68 3 3.04031 1.84506 8.67648
79 3 1.34521 0.598037 9.51111
32 2 2.58891 1.02597 10.1086
20 1 1.80111 3.18147 8.53886
92 3 0.188563 4.2792 9.33913
43 3 3.22679 4.55588 10.2797
59 3 2.27043 2.14854 11.2386
39 2 4.50241 1.80695 8.05886
23 1 6.47967 3.14243 8.13451
76 3 5.7434 1.44964 8.99481
119 5 6.50838 0.202297 7.49549
69 3 4.45959 3.51473 7.62822
27 1 5.17219 4.51885 10.4705
160 7 10.4048 2.80193 7.42329
8 1 12.7732 0.874134 9.14842
48 3 10.4177 3.73046 9.32637
89 3 8.87099 0.982037 10.5125
66 3 12.4173 2.04614 10.6759
22 1 9.95561 2.38366 10.78
12 1 1.54039 7.70284 9.19505
44 3 1.03342 6.90824 7.51062
56 3 2.7823 8.51189 7.54475
42 2 3.10167 5.48786 9.12192
57 3 2.21668 4.89059 7.82148
62 3 2.9766 6.99894 9.90522
75 3 0.417929 6.48266 10.2476
91 3 1.06321 8.97304 10.3809
94 3 4.23512 6.12018 8.14785
133 5 6.7353 6.0018 7.4079
45 3 6.33541 4.89871 9.16472
74 3 5.48277 7.74236 9.62164
28 1 7.41937 8.47567 9.978
158 6 5.08511 8.56005 7.53129
18 1 8.57537 4.46512 9.78976
10 1 11.7326 4.93912 8.24453
118 4 9.30599 6.69951 7.59436
77 3 11.6494 7.58297 9.32444
135 5 11.8271 7.74697 7.1168
65 3 9.56658 6.15136 9.80625
54 3 0.269835 8.7197 7.94291
96 3 1.29705 11.1393 8.98719
60 3 3.30057 10.001 9.30959
29 2 2.12484 10.3023 10.054
14 1 12.7442 9.28771 9.80617
19 1 0.356231 12.0501 10.8394
81 3 3.70709 0.14101 10.5366
174 7 7.62529 8.69255 6.96498
7 1 4.76951 11.0185 9.2751
78 3 7.92202 11.1257 9.88895
31 2 7.45108 10.7107 8.49899
9 1 9.25368 0.59689 9.02406
140 6 10.9593 11.8418 7.93683
67 3 11.4722 12.3336 9.99972
88 3 11.3782 10.1288 9.09435
146 6 10.0238 9.60356 7.83375
36 2 3.63392 2.30577 12.1013
71 3 3.2783 3.23683 13.2017
21 1 1.35081 2.91642 12.9961
86 3 4.04964 1.19171 13.0723
47 3 12.9364 2.10669 13.146
40 2 12.2517 1.45702 12.1301
73 3 7.48221 3.49673 10.8234
1 1 6.92074 1.69924 10.5612
93 3 4.85974 2.87341 11.2529
41 2 7.76304 3.77806 12.3573
63 3 7.15089 2.45414 12.9936
13 1 5.30925 2.60743 13.3843
95 3 9.18852 3.84445 12.35
84 3 10.5281 1.08131 12.2408
24 1 10.7093 4.91783 12.7532
16 1 8.2102 0.495117 12.5967
61 3 0.996104 4.57628 11.9363
26 1 2.86006 4.76478 12.0505
38 2 0.0914606 5.02655 10.7372
4 1 1.05701 7.6429 11.9803
51 3 2.5828 6.70695 12.4865
34 2 4.18767 7.2799 10.6354
55 3 6.88716 5.08374 12.7808
37 2 3.33693 7.87338 13.057
85 3 3.94992 8.51395 11.426
82 3 4.66923 6.08243 11.4104
11 1 6.24287 6.52719 12.5996
90 3 7.55041 6.77653 11.2005
80 3 9.48067 8.50543 10.838
52 3 12.108 8.34512 11.8273
58 3 11.8617 4.69209 11.41
17 1 11.4347 6.63883 11.0387
33 2 9.10166 6.95209 10.9906
72 3 10.0961 6.44225 12.2834
53 3 12.6069 13.0384 12.0478
3 1 1.42775 10.7472 12.9824
87 3 2.19065 11.0719 11.3927
64 3 12.7913 10.3851 12.8582
83 3 2.26589 8.91683 13.1737
98 3 6.99422 9.49501 11.5021
15 1 6.88857 11.7382 11.3809
2 1 4.28819 12.4754 12.2205
6 1 5.3392 9.52723 12.1318
50 3 4.9698 11.141 11.3108
97 3 6.33053 0.362497 11.639
25 1 10.7853 12.4376 11.7016
35 2 11.6124 9.6289 12.2527
5 1 8.61033 9.85798 12.2827
49 3 8.34615 11.7524 12.6069
70 3 10.3375 10.1839 12.4336
46 3 4.75888 8.01233 13.5815
143 6 4.75845 0.730331 0.270105
ITEM: TIMESTEP
9500
ITEM: NUMBER OF ATOMS
178
ITEM: BOX BOUNDS pp pp pp
0.0000000000000000e+00 1.3168533823700001e+01
0.0000000000000000e+00 1.3168533823700001e+01
0.0000000000000000e+00 3.5381309593600001e+01
ITEM: ATOMS id type x y z
149 6 2.44261 2.23364 2.29207
101 4 4.2785 2.94117 0.827908
144 6 0.372312 3.86557 0.843994
167 7 0.0246789 1.05308 0.775145
151 6 13.0654 2.225 3.48122
106 4 2.44147 0.0407873 0.792183
113 4 0.89527 13.0635 3.02043
163 7 4.42746 4.01871 3.23798
159 7 5.92212 1.42482 2.7946
166 7 7.33731 0.661897 0.689418
171 7 8.56219 1.5872 2.93144
122 5 6.81843 3.55185 1.37021
104 4 9.07433 3.08644 0.454681
127 5 11.0334 2.6474 1.77336
116 4 11.3501 0.107994 2.8228
172 7 9.30894 4.42616 3.20727
148 6 10.012 0.473582 0.478801
105 4 2.55487 5.06806 1.28259
120 5 2.65962 7.73947 1.07936
102 4 4.91138 5.89175 1.01437
123 5 8.30994 5.93353 1.13122
107 4 7.7542 8.34323 2.65712
142 6 5.26087 8.8244 2.36655
110 4 6.36927 6.13524 2.92093
124 5 12.5191 6.84029 1.2547
103 4 10.6452 4.88381 0.892071
169 7 9.82412 7.09762 2.97725
128 5 3.09058 11.0311 2.04055
141 6 0.584064 11.6148 0.765174
161 7 0.520596 9.19599 1.57097
100 4 5.85567 11.6847 2.06201
121 5 8.44254 12.0619 2.37991
145 6 10.3768 10.1568 3.52729
125 5 12.9914 10.7872 3.37149
115 4 11.3502 11.5552 1.34335
117 4 3.00012 4.31866 5.65314
130 5 2.027 1.70359 5.44163
126 5 1.70668 4.63806 3.73115
108 4 3.90624 13.0224 3.51084
109 4 7.00917 3.60811 3.89792
131 5 5.03332 2.28107 5.2062
134 5 8.13456 1.63041 5.79889
156 6 8.3069 4.1925 6.11256
177 7 12.7575 3.66914 5.79308
178 7 10.5592 2.516 4.69609
175 7 12.5901 0.493242 5.97924
30 2 9.8255 0.438536 6.60937
136 5 2.90757 7.17994 5.88652
168 7 1.15951 7.08683 3.44174
165 7 3.70359 6.62478 3.48519
112 4 5.24911 5.14734 5.49918
173 7 8.07326 6.59814 5.05923
170 7 5.43311 8.17489 4.91587
132 5 12.2058 5.0377 3.29612
152 6 0.267724 6.30452 5.91861
137 5 10.7475 5.6654 5.65969
150 6 12.1085 8.15374 4.24222
153 6 0.522734 9.26994 6.01442
111 4 2.00653 11.7933 4.9543
164 7 2.68261 9.18537 3.85982
176 7 4.32612 12.9853 6.29404
99 4 1.0459 12.1719 7.0246
138 5 3.3285 10.2514 6.8716
147 6 6.86378 12.7031 4.68854
129 5 7.31831 10.0469 4.322
114 4 4.61955 10.6587 4.52898
155 6 8.70868 11.5683 6.37752
162 7 5.94201 10.9271 6.74078
139 6 10.0308 12.2678 4.62464
154 6 9.80544 8.99753 5.57681
157 6 11.7428 10.8504 5.91818
68 3 3.07951 2.23223 8.65614
79 3 1.24281 0.490423 9.05913
32 2 2.44391 1.05808 9.65991
20 1 1.76426 3.3507 8.93897
92 3 13.0873 4.25717 9.29145
43 3 3.93322 4.13503 9.89993
59 3 2.051 1.96392 10.8082
39 2 4.50054 1.96444 8.00068
23 1 6.37152 3.13544 7.94567
76 3 5.81253 1.59721 8.87714
119 5 6.73604 0.191445 7.56334
69 3 4.64263 3.44983 7.45774
27 1 5.92301 4.45792 10.4502
160 7 10.4825 2.6321 7.27425
8 1 12.8838 1.44018 9.21236
48 3 10.3965 3.23297 9.26761
89 3 8.77729 1.10791 10.8034
66 3 12.2058 2.15515 10.9563
22 1 10.3214 2.3021 11.2896
12 1 1.6822 7.59103 9.25398
44 3 0.978453 6.80699 7.6405
56 3 3.08791 8.34919 8.06334
42 2 3.51409 5.26308 8.89117
57 3 2.46968 4.69639 7.96027
62 3 2.93709 6.3014 9.87371
75 3 0.12014 6.65456 9.94205
91 3 1.3419 8.95357 10.4403
94 3 4.27316 5.87307 7.69724
133 5 6.43154 6.3596 7.30034
45 3 6.02738 4.82825 8.58954
74 3 5.17663 7.88461 9.65355
28 1 7.02934 9.03492 10.0588
158 6 5.18884 8.61579 7.55534
18 1 8.76175 4.16256 9.88868
10 1 11.3371 4.65303 8.57021
118 4 9.142 6.64812 7.41368
77 3 11.4152 8.07278 9.30708
135 5 11.8059 7.82767 7.22152
65 3 9.43308 6.02817 9.56388
54 3 0.301699 8.87128 8.15841
96 3 0.696429 10.9262 9.42615
60 3 3.10522 10.4398 9.13211
29 2 1.9687 10.3538 10.3118
14 1 12.8991 9.41353 9.72518
19 1 0.649732 12.324 10.8244
81 3 3.6974 0.0272917 9.731
174 7 7.63992 8.71874 6.9836
7 1 4.51636 11.3959 9.28631
78 3 7.49673 10.7107 10.0107
31 2 7.80887 10.7627 8.44366
9 1 9.44521 0.576411 8.9721
140 6 11.0675 12.0962 7.81356
67 3 11.7856 12.9032 9.83545
88 3 10.868 10.889 9.6185
146 6 10.2841 9.80268 7.89519
36 2 3.48934 2.20421 11.7121
71 3 2.9729 3.51286 12.3239
21 1 1.17303 3.3504 12.3381
86 3 3.62969 0.907968 12.5813
47 3 0.0288094 2.47614 13.1137
40 2 12.4934 1.29077 12.1943
73 3 7.43341 3.57389 10.9296
1 1 6.90682 1.49771 10.6497
93 3 4.90682 2.2981 11.1426
41 2 7.82811 3.43139 12.4854
63 3 7.23456 1.91996 12.8648
13 1 5.42709 1.29149 12.9381
95 3 9.46822 3.56544 12.4608
84 3 11.139 0.424388 12.4632
24 1 9.93409 5.28132 12.4097
16 1 8.06555 0.308623 12.3135
61 3 1.31138 4.86526 11.1881
26 1 3.12329 4.96937 11.5373
38 2 13.1589 5.09364 10.4272
4 1 0.825226 7.25293 11.6832
51 3 2.52663 6.93285 12.6063
34 2 4.24709 7.17829 10.4582
55 3 7.34813 4.63499 13.2915
37 2 3.38892 8.20047 12.9378
85 3 3.65557 8.4056 11.191
82 3 5.02389 6.0829 11.1734
11 1 6.52949 6.19887 12.4634
90 3 7.39477 6.44842 10.8732
80 3 8.92628 8.56986 10.3448
52 3 12.465 8.34436 11.7163
58 3 11.8195 5.20339 11.2794
17 1 11.3679 7.00836 10.7316
33 2 8.82478 6.9817 10.6391
72 3 9.72035 6.85367 11.9893
53 3 0.559405 0.301551 12.176
3 1 1.58699 11.006 13.0984
87 3 2.15715 11.5712 11.318
64 3 12.9201 10.7925 12.5057
83 3 2.75431 9.56632 13.2675
98 3 7.01809 9.35821 11.9376
15 1 6.60219 11.4011 11.6508
2 1 4.2671 12.767 11.3779
6 1 5.2118 9.3157 11.8582
50 3 4.6542 10.8962 11.1142
97 3 6.0713 0.10708 11.4764
25 1 11.2029 12.0531 11.2415
35 2 11.8723 9.5261 12.4361
5 1 8.73175 9.9822 11.953
49 3 8.23077 11.6009 12.434
70 3 10.47 9.56674 12.4931
46 3 4.87077 7.84365 13.1616
143 6 4.63963 0.218474 0.613573
ITEM: TIMESTEP
9600
ITEM: NUMBER OF ATOMS
178
ITEM: BOX BOUNDS pp pp pp
0.0000000000000000e+00 1.3168533823700001e+01
0.0000000000000000e+00 1.3168533823700001e+01
0.0000000000000000e+00 3.5381309593600001e+01
ITEM: ATOMS id type x y z
149 6 2.71714 2.1867 2.23722
101 4 4.59055 2.86963 0.620701
144 6 0.249604 3.74212 0.967882
167 7 12.763 0.990438 0.818884
151 6 13.0835 2.32517 3.59231
106 4 2.12205 0.227848 0.64028
113 4 1.27577 13.1061 3.06764
163 7 4.45391 3.91263 3.23741
159 7 5.85384 1.40694 2.78279
166 7 7.29911 0.783813 0.617121
171 7 8.76605 1.65406 2.95123
122 5 6.93005 3.51395 1.19964
104 4 8.97052 2.95116 0.280279
127 5 10.954 2.96355 1.71829
116 4 11.5922 0.0926422 2.81124
172 7 9.27575 4.50393 3.24805
148 6 9.93584 0.468875 0.414236
105 4 2.17942 5.29579 1.18775
120 5 2.80958 7.83867 1.27306
102 4 5.12505 5.60125 1.02437
123 5 8.54561 5.79394 1.10526
107 4 7.72745 8.43472 2.1996
142 6 5.00391 8.91149 2.18434
110 4 6.76453 6.23292 2.91045
124 5 12.8534 6.64367 1.42958
103 4 10.8469 5.34079 0.780134
169 7 9.96655 6.976 3.07011
128 5 2.73504 10.9704 1.94282
141 6 0.409998 11.4841 0.517683
161 7 0.338316 9.08479 1.67025
100 4 6.01677 11.3881 2.35233
121 5 8.51621 12.1021 2.25153
145 6 10.0305 10.1151 3.48527
125 5 0.186036 10.6867 3.4369
115 4 11.2146 11.3794 1.3895
117 4 2.83195 4.34713 5.58169
130 5 1.92515 1.3865 5.32467
126 5 1.50418 4.44226 3.5588
108 4 3.73985 13.1247 3.47049
109 4 6.79774 3.74123 3.79296
131 5 4.9176 1.89201 5.17406
134 5 7.9728 1.7652 5.62707
156 6 8.51419 4.16979 6.01931
177 7 12.9684 3.6647 5.95336
178 7 10.597 2.65642 4.68608
175 7 12.2875 0.775875 5.70689
30 2 8.93516 0.269811 6.73098
136 5 2.92299 6.82194 5.70742
168 7 1.1419 7.1665 3.39819
165 7 3.91776 6.43692 3.37739
112 4 5.46041 5.40354 5.20988
173 7 8.05171 6.62078 5.11481
170 7 5.45515 8.16102 5.0663
132 5 12.0023 5.14393 3.35817
152 6 0.315818 6.38488 5.702
137 5 10.6579 5.43935 5.65262
150 6 11.8416 8.26559 4.33031
153 6 0.558468 9.26757 5.93547
111 4 2.08076 11.6763 5.02421
164 7 2.63586 9.11518 3.97168
176 7 4.20782 12.7362 6.42819
99 4 1.30035 12.2602 6.99848
138 5 3.06432 10.1229 6.86456
147 6 6.93744 12.7147 4.89239
129 5 7.47298 10.0157 4.26855
114 4 4.56839 10.8576 4.42583
155 6 8.72197 11.184 6.51699
162 7 5.90633 10.9761 6.69228
139 6 10.047 12.5211 4.94259
154 6 9.91729 8.91965 5.85322
157 6 11.8543 10.8041 5.82788
68 3 2.98398 1.96564 8.24027
79 3 1.50936 0.318682 8.77794
32 2 2.7369 0.998642 9.33077
20 1 1.76914 3.11605 9.01349
92 3 12.6571 4.35849 9.03604
43 3 3.83216 4.32635 9.80451
59 3 2.68491 1.94996 10.4585
39 2 4.42928 2.04071 7.54773
23 1 6.25393 3.36553 7.4859
76 3 5.48669 1.93971 8.66298
119 5 6.67935 0.333031 7.4432
69 3 4.57556 3.3544 7.04501
27 1 5.97436 4.33192 11.0052
160 7 10.2689 2.56503 7.19705
8 1 12.552 2.4533 9.37359
48 3 10.6906 3.06983 9.26766
89 3 9.29801 1.16423 10.6414
66 3 12.6786 1.98131 10.984
22 1 10.4535 2.4335 11.0854
12 1 1.74838 8.14698 9.28011
44 3 1.38653 7.10992 7.43807
56 3 3.16072 8.46114 8.20226
42 2 3.487 5.43527 8.89459
57 3 2.41844 4.70757 7.97172
62 3 3.0535 6.74963 9.68454
75 3 0.0393166 6.76229 9.46729
91 3 0.82375 9.16796 10.3854
94 3 4.34811 5.67744 7.63749
133 5 6.53265 6.36057 7.43293
45 3 6.52365 4.84034 8.84363
74 3 5.57288 7.20787 9.50447
28 1 7.11323 8.94349 10.0422
158 6 5.14905 8.76124 7.82
18 1 8.42543 3.98432 9.34876
10 1 10.8581 4.76899 8.65615
118 4 9.02162 6.91104 7.61661
77 3 11.6037 8.56296 9.41273
135 5 11.8971 7.70384 7.50819
65 3 9.61366 5.90344 9.59409
54 3 0.841026 9.08765 7.87004
96 3 0.59506 11.4095 9.73747
60 3 2.66513 10.3792 9.11892
29 2 1.71993 10.554 10.2973
14 1 12.8649 10.0996 9.1164
19 1 0.477811 0.00584336 10.3062
81 3 3.6658 13.0978 9.97998
174 7 7.52253 8.82924 6.9826
7 1 4.39951 11.6479 9.4596
78 3 7.37956 10.9576 10.052
31 2 7.44876 10.6599 8.55053
9 1 8.82575 0.084508 9.51595
140 6 11.1859 12.4015 7.70483
67 3 11.9507 0.268755 9.47111
88 3 11.2057 11.0988 9.65407
146 6 10.2905 10.0132 8.1131
36 2 3.55249 2.10182 11.8164
71 3 2.71263 3.15634 12.4996
21 1 1.10954 2.81692 12.6109
86 3 3.9613 0.815646 12.6039
47 3 12.9499 2.19891 13.5435
40 2 12.6572 1.04896 12.378
73 3 7.46988 3.13059 10.7619
1 1 5.88127 1.31194 10.365
93 3 4.99984 2.5679 11.2993
41 2 7.75004 3.31993 12.2798
63 3 7.64096 2.00731 13.1073
13 1 6.11266 1.14631 13.1533
95 3 9.4298 3.52777 12.1023
84 3 11.5384 0.152765 12.5698
24 1 10.972 4.84915 12.2612
16 1 8.63245 0.328464 12.0456
61 3 1.42548 4.53081 10.7109
26 1 2.78003 5.01137 11.7687
38 2 0.207376 5.4076 10.0321
4 1 0.628828 7.49872 11.7314
51 3 2.19055 7.14053 12.8458
34 2 4.39065 7.16676 10.4315
55 3 6.90434 4.56401 12.7424
37 2 3.37054 8.15489 12.8833
85 3 3.96867 8.40167 11.2784
82 3 4.61133 5.88829 11.5422
11 1 6.12251 6.38262 12.8012
90 3 7.42638 6.33641 11.2806
80 3 8.95388 8.04393 10.3413
52 3 12.1217 8.12453 12.7134
58 3 12.2001 5.70085 11.1516
17 1 11.2567 7.09486 10.9363
33 2 8.84914 6.44848 10.9241
72 3 9.76018 6.29706 12.0849
53 3 0.939211 0.556692 12.1159
3 1 1.44644 11.1508 12.8306
87 3 2.51618 11.0951 11.4089
64 3 12.8196 10.68 12.0742
83 3 2.75798 9.41869 13.3537
98 3 7.18824 9.35493 11.7732
15 1 6.86747 11.4672 11.695
2 1 3.89995 12.4903 11.7302
6 1 5.06237 9.69801 12.4873
50 3 5.14858 11.1656 11.3448
97 3 6.76098 0.266653 11.7132
25 1 10.7315 11.724 11.9369
35 2 11.9169 9.46598 12.3971
5 1 9.13302 9.67038 11.371
49 3 9.09702 11.6988 11.7133
70 3 10.5485 9.91364 12.2204
46 3 4.80707 7.96565 13.5718
143 6 4.7756 13.1654 0.816342
ITEM: TIMESTEP
9700
ITEM: NUMBER OF ATOMS
178
ITEM: BOX BOUNDS pp pp pp
0.0000000000000000e+00 1.3168533823700001e+01
0.0000000000000000e+00 1.3168533823700001e+01
0.0000000000000000e+00 3.5381309593600001e+01
ITEM: ATOMS id type x y z
149 6 2.87475 2.07994 2.2897
101 4 4.87514 2.30936 0.416746
144 6 0.263236 3.6374 0.951928
167 7 12.6204 1.00383 0.870135
151 6 0.152444 2.31172 3.4201
106 4 2.23271 13.1187 0.602763
113 4 0.815126 13.1513 2.86119
163 7 4.43673 3.93619 2.98345
159 7 6.00279 1.4475 2.75824
166 7 7.15938 0.717643 0.564378
171 7 8.7218 1.6089 2.64759
122 5 6.85423 3.83039 1.33133
104 4 9.1388 3.25455 0.366452
127 5 11.0933 2.8721 1.94959
116 4 11.0438 0.391228 2.80333
172 7 9.10895 4.57309 3.27449
148 6 9.97391 0.653019 0.286982
105 4 2.50196 5.04486 1.15624
120 5 2.63794 7.72862 1.27998
102 4 5.03202 5.69494 0.841553
123 5 8.42512 6.15997 0.898621
107 4 7.8489 8.66415 1.84328
142 6 5.2518 8.70526 2.50627
110 4 6.6664 6.40648 2.98468
124 5 13.1439 6.37935 1.17539
103 4 10.6711 5.3941 0.974908
169 7 9.84336 7.10474 2.92394
128 5 2.92273 10.9094 2.13362
141 6 0.316778 11.6264 0.65186
161 7 0.345282 8.94934 1.38662
100 4 5.88524 11.7248 2.12745
121 5 8.52572 12.2165 2.31598
145 6 10.1464 10.2847 3.74001
125 5 12.9187 10.6562 3.40096
115 4 11.0807 11.3486 1.36294
117 4 2.70857 3.90985 5.67933
130 5 2.14811 1.47221 5.38421
126 5 1.66026 4.66579 3.61298
108 4 3.86147 13.1355 3.59275
109 4 6.75047 3.83432 3.97696
131 5 4.8774 2.38266 5.13434
134 5 8.02941 1.8712 5.18209
156 6 8.54667 4.49526 6.12816
177 7 13.1412 3.49046 5.96156
178 7 10.6198 2.77114 4.65239
175 7 12.3529 0.593684 5.43629
30 2 8.80509 0.240631 6.99872
136 5 3.06353 6.73016 5.92684
168 7 1.14955 7.38813 3.53161
165 7 3.79687 6.41154 3.30086
112 4 5.56077 5.13326 5.54648
173 7 8.02744 6.96616 5.04956
170 7 5.3359 8.07129 5.20912
132 5 12.0856 5.061 3.4809
152 6 0.106705 6.24061 5.89712
137 5 10.7281 5.82826 5.74755
150 6 11.8303 8.32089 4.26919
153 6 0.477064 9.31214 5.93905
111 4 1.90683 11.7496 4.85942
164 7 2.85492 9.03699 4.15047
176 7 4.14411 12.9257 6.30129
99 4 0.775927 12.4605 6.89228
138 5 3.36642 10.1858 6.84702
147 6 6.94402 12.5957 4.81642
129 5 7.29775 9.66663 4.09265
114 4 4.7583 10.8081 4.34006
155 6 8.69365 10.876 6.29923
162 7 5.81093 10.8033 6.62889
139 6 9.8169 12.5964 4.98202
154 6 10.0134 8.74966 5.99104
157 6 11.7005 10.8954 5.94506
68 3 3.3911 1.96628 8.54619
79 3 1.4932 0.57257 9.43676
32 2 3.0283 0.615174 9.07561
20 1 2.25618 3.53596 9.36542
92 3 0.512666 3.75041 9.00016
43 3 3.98525 4.39778 9.44411
59 3 2.64264 1.84966 11.1503
39 2 4.70413 2.06316 7.61607
23 1 6.68151 2.95617 7.31577
76 3 5.7996 1.88426 8.68514
119 5 6.37535 0.118629 7.46099
69 3 4.89304 3.60944 7.20303
27 1 5.82341 4.40414 10.7577
160 7 9.95943 2.19996 7.28819
8 1 0.425352 1.7607 8.54021
48 3 10.585 3.34377 9.02125
89 3 9.60204 0.858018 10.2603
66 3 12.4745 2.31533 11.2586
22 1 11.0422 1.96046 10.3903
12 1 2.09822 8.12585 9.59215
44 3 1.09092 7.18677 7.29013
56 3 3.18994 8.21477 7.67545
42 2 3.31189 5.56076 8.69116
57 3 2.35365 5.20965 7.5326
62 3 2.77979 6.65064 9.84335
75 3 13.0099 6.34964 9.27172
91 3 1.61876 9.19524 10.936
94 3 4.50811 6.02222 7.6122
133 5 6.63769 6.16802 7.51023
45 3 6.62189 4.66259 9.0165
74 3 5.23369 6.8803 9.28421
28 1 7.60897 8.46539 9.71364
158 6 5.30886 8.78282 8.14636
18 1 8.53841 4.05608 9.63198
10 1 11.2601 4.77696 8.17863
118 4 9.50224 6.94241 7.87955
77 3 12.0168 8.66895 9.70204
135 5 12.2435 7.93142 7.67069
65 3 9.49828 5.52268 10.2536
54 3 1.05459 8.9845 8.01236
96 3 1.22273 11.1532 9.7116
60 3 3.38084 10.4424 9.41596
29 2 2.38665 10.6252 10.4738
14 1 13.1461 10.0695 9.30009
19 1 0.246716 12.6374 10.137
81 3 4.14643 0.0752921 9.96164
174 7 7.48912 8.60517 7.04465
7 1 5.03762 11.4257 9.59945
78 3 7.56118 11.1537 10.0165
31 2 7.51431 10.4154 8.57282
9 1 8.66132 12.6588 9.39324
140 6 10.8683 12.6037 7.63747
67 3 12.3699 0.588764 8.99637
88 3 11.5807 11.3334 9.79859
146 6 10.3584 10.0788 8.12533
36 2 3.74821 2.25909 12.2566
71 3 3.1102 3.54223 12.8637
21 1 1.17441 2.90662 11.7476
86 3 3.94728 0.878486 13.0457
47 3 12.751 1.97373 13.7801
40 2 12.487 1.2659 12.4652
73 3 7.67278 2.84562 10.6543
1 1 6.32664 1.58245 10.3751
93 3 5.04634 2.48561 11.3868
41 2 8.10391 3.08308 12.1088
63 3 7.90977 1.80625 13.0176
13 1 5.96441 1.40905 12.7277
95 3 9.58846 3.46312 12.0373
84 3 11.0321 0.510655 12.2912
24 1 11.1038 4.93997 12.1103
16 1 9.1759 0.372314 12.2341
61 3 1.59399 4.4299 10.8619
26 1 2.83178 5.1621 12.0632
38 2 0.402063 5.0289 9.86315
4 1 1.04976 7.47618 11.8524
51 3 2.68673 6.89572 12.4114
34 2 4.18475 6.97416 10.5529
55 3 7.14326 4.36021 12.5808
37 2 3.31798 8.00297 13.5125
85 3 4.05107 8.49846 10.757
82 3 4.78222 5.68886 11.5394
11 1 5.89158 6.03496 13.1286
90 3 7.52372 6.69127 11.1201
80 3 9.43952 8.01625 10.5819
52 3 12.4372 8.19028 12.3524
58 3 12.3007 5.13665 10.9834
17 1 11.3368 7.42968 11.2239
33 2 8.97029 6.59056 11.2396
72 3 10.0953 6.5633 12.3919
53 3 0.266157 0.217172 12.0622
3 1 1.30349 10.5784 12.8535
87 3 2.31225 11.4826 11.8203
64 3 12.7025 10.5855 13.5878
83 3 2.21005 8.91627 13.8702
98 3 7.08293 9.62355 12.0907
15 1 7.05486 11.5925 11.9237
2 1 3.87706 12.5716 11.9278
6 1 5.56772 9.2026 11.9374
50 3 4.78073 11.0756 11.5506
97 3 6.63174 0.0986699 11.4475
25 1 10.9226 11.9057 11.3998
35 2 11.8437 9.4519 12.7942
5 1 8.94644 9.85564 11.6205
49 3 8.95396 11.7654 12.1522
70 3 10.7662 9.9061 11.9204
46 3 4.90892 7.91043 13.2669
143 6 4.45464 13.1319 0.539982
ITEM: TIMESTEP
9800
ITEM: NUMBER OF ATOMS
178
ITEM: BOX BOUNDS pp pp pp
0.0000000000000000e+00 1.3168533823700001e+01
0.0000000000000000e+00 1.3168533823700001e+01
0.0000000000000000e+00 3.5381309593600001e+01
ITEM: ATOMS id type x y z
149 6 2.86565 2.14708 2.27883
101 4 4.71542 2.78973 0.628626
144 6 0.608993 3.67481 0.8246
167 7 12.7967 1.00499 0.727121
151 6 13.145 2.18145 3.31629
106 4 2.22523 0.0231508 0.955649
113 4 1.02129 12.9996 3.05664
163 7 4.61443 4.10381 2.95845
159 7 5.86973 1.33115 2.71863
166 7 7.19559 0.700958 0.390666
171 7 8.49209 2.039 2.5909
122 5 6.91078 3.78701 1.3002
104 4 9.0221 3.58541 0.262399
127 5 11.0173 2.95556 1.71987
116 4 11.4385 0.232552 2.7149
172 7 9.21833 4.71616 3.26112
148 6 9.75612 0.853622 0.295332
105 4 2.89394 4.58668 1.0031
120 5 2.88268 7.60423 1.58778
102 4 4.92119 6.04299 1.06785
123 5 8.13871 6.19113 1.05711
107 4 7.94587 8.77297 1.59876
142 6 5.27111 8.79395 2.50181
110 4 6.43577 6.613 2.89902
124 5 0.107024 6.50819 1.48922
103 4 10.6452 5.47694 1.07734
169 7 9.62192 7.52355 3.03171
128 5 2.75681 10.6929 2.0786
141 6 0.231484 11.3758 0.765916
161 7 0.370153 9.03177 1.30698
100 4 5.74468 11.2782 2.11402
121 5 8.30128 12.1777 2.25885
145 6 10.1399 10.4246 3.977
125 5 13.0773 10.4504 3.50561
115 4 10.9562 11.8427 1.29513
117 4 2.77048 4.10924 5.55641
130 5 1.92777 1.36602 5.3208
126 5 1.66947 4.82871 3.47726
108 4 3.80479 13.0495 3.25442
109 4 6.92796 3.93553 4.01378
131 5 4.88005 2.13503 4.98144
134 5 7.98543 2.01912 5.18222
156 6 8.4873 4.43811 6.15204
177 7 13.0643 3.49434 5.5696
178 7 10.6085 2.89024 4.82325
175 7 12.5234 0.327796 5.35339
30 2 8.29717 0.0174535 6.14785
136 5 2.52191 6.64904 6.1434
168 7 1.03538 7.5609 3.59669
165 7 3.8076 6.44711 3.72919
112 4 5.20055 5.43075 5.48796
173 7 7.91384 6.82351 5.10986
170 7 5.20535 8.06799 5.59688
132 5 12.1673 5.17858 3.39483
152 6 0.174898 6.282 5.91984
137 5 10.675 5.88329 5.24672
150 6 11.9135 8.19763 4.22929
153 6 0.382467 9.33672 5.97307
111 4 2.02615 11.6352 4.98195
164 7 2.92269 8.99293 4.26151
176 7 4.17912 12.9428 6.16613
99 4 1.07368 12.0531 6.94734
138 5 3.09686 10.3322 7.04227
147 6 6.75969 12.5929 4.66258
129 5 7.38022 9.48742 4.12182
114 4 4.64595 10.7722 4.43503
155 6 8.63964 10.9964 6.22592
162 7 5.90827 10.5822 6.68321
139 6 9.93612 12.946 4.94215
154 6 10.158 8.73753 5.97876
157 6 11.6781 10.9802 5.94946
68 3 3.60296 1.9901 8.91601
79 3 1.40575 1.02944 8.5223
32 2 2.85877 0.60109 8.69244
20 1 2.56729 3.39559 9.57225
92 3 0.483677 3.46645 9.46412
43 3 4.19219 4.28771 9.92106
59 3 2.5769 2.21603 11.6966
39 2 4.74882 1.97852 7.82568
23 1 6.60169 2.99246 7.66879
76 3 5.92837 1.43429 8.67751
119 5 6.47894 13.1514 7.36639
69 3 4.83305 3.37221 7.59059
27 1 6.09962 4.55112 10.7236
160 7 9.68851 1.59265 7.16019
8 1 12.7611 1.98241 8.69223
48 3 10.1189 2.85464 8.63586
89 3 9.3082 0.153734 10.268
66 3 12.3503 1.70469 11.0243
22 1 10.3699 1.84724 10.8221
12 1 2.00258 8.22212 9.46279
44 3 1.22034 7.52871 7.46744
56 3 3.2677 7.97554 7.65
42 2 4.07861 5.06837 8.59785
57 3 2.58191 4.61374 8.12091
62 3 3.1566 6.65726 9.99195
75 3 0.443202 6.27924 8.99891
91 3 1.4829 9.30177 10.8438
94 3 4.34977 5.81493 7.33021
133 5 6.98416 5.98992 7.59457
45 3 6.73645 4.27645 8.8791
74 3 5.47144 6.44262 9.13372
28 1 8.11517 8.72255 10.3066
158 6 5.50326 8.70362 8.31787
18 1 8.73266 4.05253 9.56407
10 1 10.9273 4.67006 7.22527
118 4 9.4485 6.83725 7.79033
77 3 12.7864 8.22995 9.58483
135 5 12.2353 7.89107 7.62565
65 3 8.97186 6.11697 9.87664
54 3 1.45033 9.56335 7.89859
96 3 1.33521 11.3614 9.55335
60 3 3.45963 10.0695 9.40667
29 2 2.29328 10.608 10.5152
14 1 0.0354546 10.2211 9.59158
19 1 0.419543 0.0777344 9.91909
81 3 4.02867 12.8147 9.50493
174 7 7.68728 8.44643 7.21105
7 1 5.18757 11.0626 9.64901
78 3 7.60997 10.7302 9.95
31 2 7.66004 10.388 8.31795
9 1 8.26052 12.2234 9.43763
140 6 10.3676 12.4883 7.578
67 3 11.6158 0.353981 8.94097
88 3 11.5042 11.1544 9.51444
146 6 10.37 10.0948 8.03385
36 2 3.96368 2.27029 12.2369
71 3 3.98172 3.59905 13.1261
21 1 0.831107 2.87741 12.1449
86 3 4.19167 0.759498 12.6742
47 3 12.9417 1.58156 13.2002
40 2 12.1578 0.676109 12.2392
73 3 7.97202 2.83951 10.7652
1 1 6.61936 1.76589 10.3612
93 3 5.10083 2.43838 11.2497
41 2 8.11257 3.2735 12.2581
63 3 7.56404 1.92996 12.9814
13 1 6.04437 0.919484 12.6482
95 3 9.75198 3.15358 12.3213
84 3 10.6179 0.554751 12.3493
24 1 10.9987 4.78556 12.0104
16 1 8.67053 0.388098 12.2099
61 3 1.27132 4.87651 11.278
26 1 3.31677 4.91788 11.8875
38 2 0.289248 4.96487 9.91891
4 1 1.45551 6.68514 11.3573
51 3 2.50893 6.71782 12.8572
34 2 4.73472 6.98224 10.4662
55 3 7.40173 4.48015 12.5053
37 2 3.19085 7.78736 13.569
85 3 5.2606 8.45842 10.5035
82 3 5.18122 5.914 11.6628
11 1 6.73385 6.39485 12.9904
90 3 7.60071 7.0897 11.5392
80 3 9.8947 8.56774 10.7985
52 3 12.5059 8.13623 12.2508
58 3 11.9942 5.07969 10.639
17 1 11.522 7.83249 10.88
33 2 9.11907 6.80649 11.1419
72 3 10.1408 6.44227 12.0517
53 3 12.799 12.4501 11.5991
3 1 1.91223 10.3574 13.0851
87 3 2.60233 11.5856 11.654
64 3 0.0265719 10.0198 13.9046
83 3 2.37775 8.96315 13.9967
98 3 7.48485 9.65628 12.1758
15 1 6.97294 11.5335 11.9949
2 1 4.44463 12.5826 11.292
6 1 5.81889 9.2688 12.0929
50 3 5.25696 10.9964 11.4974
97 3 6.93463 0.0995826 11.1996
25 1 10.9624 12.1245 10.9656
35 2 12.2797 9.53392 12.7399
5 1 9.11491 10.1819 12.5676
49 3 8.71872 11.8693 12.493
70 3 11.2342 10.4858 12.427
46 3 4.74886 7.78985 13.2308
143 6 4.62025 0.0427734 0.480847
ITEM: TIMESTEP
9900
ITEM: NUMBER OF ATOMS
178
ITEM: BOX BOUNDS pp pp pp
0.0000000000000000e+00 1.3168533823700001e+01
0.0000000000000000e+00 1.3168533823700001e+01
0.0000000000000000e+00 3.5381309593600001e+01
ITEM: ATOMS id type x y z
149 6 2.78913 2.21827 2.5487
101 4 4.44489 2.84519 0.444635
144 6 0.565927 3.50776 0.762202
167 7 13.0485 0.995846 0.727969
151 6 0.0135509 2.35301 3.32106
106 4 2.31841 0.0360097 0.728081
113 4 1.07716 13.0939 3.00343
163 7 4.46844 4.00735 3.38393
159 7 5.94518 1.49854 2.59479
166 7 7.19307 1.02233 0.493369
171 7 8.8135 2.05434 2.76416
122 5 6.71983 3.81305 1.31228
104 4 9.09728 3.57503 0.326727
127 5 11.0901 3.25476 1.67382
116 4 11.3093 0.359394 2.55142
172 7 9.15514 4.76916 3.1673
148 6 9.83358 0.917123 0.37882
105 4 3.03784 5.13756 1.01941
120 5 2.72738 7.48952 1.45413
102 4 5.49726 6.11697 1.24297
123 5 8.31856 6.22707 1.0924
107 4 7.25989 9.29527 1.69406
142 6 4.88439 8.86192 2.56449
110 4 6.67028 6.74016 3.17023
124 5 0.171999 6.43891 1.22892
103 4 10.5287 5.90281 1.00993
169 7 9.3267 7.64067 3.18252
128 5 2.70259 10.5987 2.08076
141 6 0.175103 11.5976 0.74601
161 7 0.443478 8.98733 1.44439
100 4 6.04528 11.5025 1.96579
121 5 8.5134 12.6177 2.37607
145 6 10.026 10.6315 3.75149
125 5 12.9712 10.7014 3.41876
115 4 10.7743 11.7038 0.933036
117 4 2.86513 4.0217 5.35547
130 5 2.15278 1.25758 5.26885
126 5 1.51265 4.75791 3.23877
108 4 3.84965 12.899 3.36223
109 4 6.98017 4.16399 3.97724
131 5 4.83001 1.94757 5.04298
134 5 7.60121 1.8371 5.01568
156 6 8.71558 3.92015 6.12436
177 7 0.029686 3.71746 5.45487
178 7 10.6241 2.60395 4.54634
175 7 12.7439 0.509309 5.37878
30 2 8.24008 13.049 6.30348
136 5 3.032 6.88586 6.3134
168 7 1.03996 7.58949 3.7109
165 7 3.85632 6.48169 3.78033
112 4 5.41044 5.19347 5.86674
173 7 7.89809 6.43064 5.43453
170 7 5.42311 8.16622 5.50851
132 5 11.9532 5.22672 3.0945
152 6 0.0549872 6.2654 5.68958
137 5 10.5836 5.6054 5.47008
150 6 11.6546 8.42117 4.17984
153 6 0.181381 9.28342 6.09825
111 4 1.94609 11.5728 4.96025
164 7 2.8174 9.08119 4.62763
176 7 4.22261 12.6515 6.23385
99 4 1.47836 11.958 6.93938
138 5 3.58487 9.93124 7.22931
147 6 6.72592 12.5724 4.63402
129 5 7.3705 9.49331 4.08256
114 4 4.68028 10.6868 4.4114
155 6 8.57813 10.8599 6.00036
162 7 6.05765 10.7847 6.80973
139 6 9.91284 13.0295 4.86258
154 6 9.95578 8.82289 5.79366
157 6 11.7064 11.0454 5.90436
68 3 3.36022 1.67851 8.36988
79 3 1.26436 0.579717 9.19618
32 2 2.79488 0.286702 8.65712
20 1 1.5005 2.44183 8.47334
92 3 12.9654 3.46404 8.80371
43 3 3.79175 4.72531 10.1499
59 3 2.87539 2.34475 10.6052
39 2 4.60961 1.73482 7.54774
23 1 6.65849 2.87931 7.53614
76 3 5.81827 1.33259 8.43626
119 5 6.63052 13.1592 7.33219
69 3 4.49905 3.18589 7.16341
27 1 5.50606 4.21843 10.884
160 7 9.44701 1.68779 7.24833
8 1 12.503 1.55923 8.15336
48 3 10.627 2.41594 8.59133
89 3 9.86289 13.066 10.6191
66 3 12.4876 1.65516 10.7975
22 1 10.6765 1.58084 10.2137
12 1 1.61673 7.70803 9.40863
44 3 1.11688 7.00859 7.20202
56 3 3.33252 8.02533 8.16604
42 2 3.1851 4.78065 8.85216
57 3 2.10794 4.07786 8.29255
62 3 3.07466 6.97579 10.5476
75 3 0.869005 6.01087 9.45407
91 3 1.41193 9.2835 10.5269
94 3 4.02119 5.38295 7.65262
133 5 6.6954 5.9881 7.6646
45 3 6.57413 4.14253 8.93218
74 3 5.48166 6.61689 9.37732
28 1 7.7257 9.01809 9.73236
158 6 5.63473 8.46161 8.2706
18 1 8.44904 3.99583 9.44764
10 1 11.3775 4.07827 7.72591
118 4 9.45846 6.42907 7.63035
77 3 12.4802 7.85934 9.55062
135 5 11.8988 7.52732 7.64782
65 3 9.30835 6.22824 9.74776
54 3 1.03469 9.2531 8.01951
96 3 1.18803 11.1635 9.60499
60 3 3.44127 10.3174 9.36932
29 2 2.29789 10.4359 10.4239
14 1 12.9742 9.8966 9.37429
19 1 0.210788 12.5617 9.62905
81 3 3.56915 12.888 9.85912
174 7 7.77749 8.57554 7.08261
7 1 5.08793 11.3327 9.67676
78 3 7.86788 10.7876 9.95857
31 2 7.7354 10.5461 8.28851
9 1 8.45365 12.3721 10.1117
140 6 10.2143 12.2335 7.56876
67 3 11.9291 12.8626 8.70348
88 3 11.234 10.2699 9.81587
146 6 10.3034 9.76197 7.99304
36 2 3.9916 2.40521 11.6674
71 3 4.11012 3.48437 12.8096
21 1 1.32692 2.17528 11.4548
86 3 4.24009 1.0815 12.4694
47 3 0.55893 1.07164 12.6968
40 2 12.4355 0.677293 11.9801
73 3 8.58325 2.49701 10.6064
1 1 7.03519 1.437 9.98671
93 3 5.33062 2.4818 10.8946
41 2 8.34973 3.14206 12.1592
63 3 8.02864 1.91966 12.9346
13 1 6.24557 1.55877 12.6258
95 3 9.82524 3.68968 12.5158
84 3 11.1639 0.871008 12.8034
24 1 10.972 4.59671 11.5642
16 1 9.22212 0.549799 12.2685
61 3 0.489131 4.56237 11.4002
26 1 3.57114 5.19198 12.9476
38 2 0.0604104 4.87473 9.87253
4 1 1.58268 6.23245 11.6278
51 3 3.14975 6.98093 13.243
34 2 4.62916 6.88955 10.725
55 3 7.29079 4.23278 11.9033
37 2 3.83222 8.20453 13.5805
85 3 5.02735 8.45318 10.4484
82 3 5.05785 5.92923 11.8336
11 1 6.30458 6.4673 13.096
90 3 7.83387 7.02114 11.9306
80 3 9.38115 8.67216 10.9359
52 3 12.6974 8.03896 12.294
58 3 11.8526 5.13169 10.2186
17 1 11.7681 6.904 10.9986
33 2 9.11088 7.08424 11.1318
72 3 10.384 6.47047 12.0535
53 3 12.5351 12.2859 11.3211
3 1 1.69432 10.7445 13.41
87 3 2.632 11.2538 11.802
64 3 0.165273 10.241 13.1572
83 3 3.27233 9.48284 13.8393
98 3 7.10599 9.71191 12.862
15 1 7.05209 11.5919 12.156
2 1 3.44143 12.7054 11.5221
6 1 5.61855 9.48704 11.9236
50 3 5.42925 11.2977 11.4436
97 3 7.17866 0.232563 11.1481
25 1 10.6077 11.7737 11.5887
35 2 12.1474 9.41013 12.542
5 1 9.06553 9.80663 12.7406
49 3 8.79841 11.6207 12.4016
70 3 10.8831 10.1389 12.4928
46 3 5.35196 7.96509 13.17
143 6 4.67685 0.192729 0.586572
ITEM: TIMESTEP
10000
ITEM: NUMBER OF ATOMS
178
ITEM: BOX BOUNDS pp pp pp
0.0000000000000000e+00 1.3168533823700001e+01
0.0000000000000000e+00 1.3168533823700001e+01
0.0000000000000000e+00 3.5381309593600001e+01
ITEM: ATOMS id type x y z
149 6 2.86287 2.11365 2.58697
144 6 0.947992 3.70098 0.699631
151 6 0.183382 2.39834 3.34932
101 4 4.48084 2.91536 0.820443
163 7 4.43894 4.10113 3.17707
159 7 5.92543 1.64455 2.81368
166 7 7.29134 1.33194 0.514631
122 5 6.74262 4.09236 1.30681
143 6 4.6969 0.427495 0.509533
167 7 12.9703 1.22838 0.723877
171 7 8.80739 2.12241 2.55634
104 4 9.1393 3.84413 0.583103
127 5 11.2715 3.13825 1.55512
116 4 11.4463 0.395009 2.64768
148 6 10.0326 1.05851 0.110404
105 4 2.98482 4.79152 1.03663
120 5 2.61584 7.68293 1.53964
124 5 0.00900937 6.37643 1.05883
126 5 1.61934 5.09443 3.17477
168 7 0.979855 7.70073 3.42589
102 4 5.05103 6.26364 1.26076
123 5 8.01846 6.55185 1.0558
142 6 4.73363 8.74936 2.63838
110 4 6.74924 6.6358 3.37933
172 7 9.2363 4.8407 3.23226
103 4 10.3899 5.92018 0.951879
169 7 9.26212 7.37548 3.18076
132 5 11.9224 5.7147 3.2234
106 4 2.37559 13.0262 0.737963
113 4 1.09276 13.1072 2.86133
128 5 2.67339 10.7534 2.30898
141 6 0.398444 11.5413 0.659565
161 7 0.304194 9.09829 1.51951
108 4 3.97587 12.9645 3.41239
107 4 6.8235 8.91932 1.33815
100 4 5.87852 11.7577 2.05501
121 5 8.49562 12.6636 2.14963
145 6 9.99482 10.5803 3.49768
125 5 12.8773 10.9532 3.33938
115 4 11.1322 11.9155 1.12154
117 4 2.63912 4.03718 5.3514
130 5 2.20732 1.23827 5.4716
177 7 0.0517374 3.80022 5.58758
109 4 6.84484 3.95264 3.99433
131 5 4.91968 1.98777 5.31117
134 5 7.81061 1.60891 5.0708
156 6 8.81204 3.89057 5.93754
178 7 10.8418 2.65948 4.62452
175 7 12.6849 0.412657 5.2195
136 5 2.70036 6.56362 6.16502
165 7 3.75397 6.49078 3.74405
152 6 0.331314 6.57033 5.64211
112 4 5.29746 5.08516 5.72423
173 7 8.19418 6.24516 5.67512
170 7 5.34583 7.91598 5.54144
174 7 7.6538 8.34442 7.0532
137 5 10.785 5.63275 5.40457
150 6 11.6758 8.48874 4.04831
154 6 9.90717 8.72697 5.65862
111 4 2.02847 11.6942 4.89798
164 7 2.6788 8.97029 4.63598
176 7 4.29527 12.5527 6.39224
99 4 1.13802 11.8173 7.04836
138 5 3.35455 10.1289 7.03875
30 2 8.47657 12.8912 6.47015
147 6 6.90846 12.392 4.76923
129 5 7.12712 9.42043 4.12302
114 4 4.67346 10.7064 4.39981
155 6 8.67235 10.8091 5.93742
162 7 5.99805 10.5833 6.80236
153 6 12.9627 9.37111 6.14401
139 6 10.1654 12.9821 4.8842
157 6 11.5777 11.118 5.84171
68 3 3.32727 1.8143 8.37013
79 3 1.44682 0.372598 9.17565
32 2 2.90798 0.110087 8.6436
20 1 1.42513 2.38804 8.83684
92 3 0.0251205 3.5139 8.76202
43 3 3.3135 4.29136 9.791
57 3 2.37279 3.84754 7.38
39 2 4.78408 1.71029 7.81756
23 1 6.70229 2.82412 7.41687
76 3 5.74169 1.399 8.97237
69 3 4.759 3.18431 7.42854
45 3 6.72551 4.20143 9.10573
1 1 6.92638 1.97893 10.2452
97 3 7.02499 0.0632831 10.6024
160 7 9.36988 1.67537 7.35224
8 1 11.7719 1.36932 7.78807
48 3 10.7636 2.55712 8.56411
89 3 10.0894 0.132077 10.5925
22 1 10.7837 2.26994 10.4414
10 1 11.1134 4.19669 7.35798
12 1 2.31301 7.45509 9.32241
44 3 1.15027 6.76493 7.52222
56 3 3.37302 7.75283 8.01727
42 2 3.14844 4.54733 8.46079
75 3 1.1278 5.88747 9.78547
94 3 3.85153 5.66091 7.75499
133 5 6.55347 6.08178 7.80573
74 3 5.14405 6.30369 9.5901
158 6 5.42809 8.57727 8.30744
118 4 9.32405 6.24458 7.97626
77 3 12.1957 7.78609 9.06454
135 5 11.6293 7.12859 7.22258
65 3 9.25506 6.24157 10.0381
38 2 13.1409 4.90659 9.80428
58 3 11.8664 5.55726 9.95695
91 3 1.38868 8.91523 10.1792
54 3 1.4646 8.97993 7.44441
96 3 1.01209 11.0674 9.38579
60 3 3.34339 9.9036 9.25218
29 2 2.11144 10.2878 10.2155
19 1 0.0778225 12.454 10.28
81 3 3.9629 12.9037 9.83463
119 5 6.82611 13.161 7.62329
28 1 8.24821 8.93291 9.66575
7 1 5.11748 11.0791 9.74165
78 3 7.82506 10.7797 9.83131
31 2 7.80673 10.4118 8.21408
9 1 8.60224 12.7669 10.1474
14 1 13.1102 9.57232 9.13383
140 6 10.1252 12.1467 7.74651
67 3 11.9649 12.8151 8.77838
88 3 11.359 10.1341 9.73969
146 6 10.571 9.60568 7.82787
59 3 2.87126 1.81049 10.9487
36 2 3.94642 2.28907 11.8525
71 3 3.7133 3.66273 12.709
21 1 0.90676 2.23398 11.7343
47 3 0.986883 0.52478 12.6131
61 3 0.143311 4.21754 11.2989
86 3 4.43437 0.963308 12.7052
93 3 5.22909 2.62967 11.0171
41 2 8.56184 3.01086 12.053
63 3 8.11596 1.73673 12.8743
13 1 6.15624 1.43747 12.8534
55 3 7.30207 3.96949 11.7932
66 3 12.3078 1.54678 11.0315
40 2 12.6447 0.465189 12.3542
73 3 8.98911 2.53547 10.669
95 3 9.74336 3.97276 12.5149
84 3 11.645 0.958431 13.3165
16 1 10.1895 0.25462 12.5452
62 3 3.11844 7.0397 11.0257
26 1 3.58689 5.34528 13.0843
4 1 1.32176 6.84838 11.7554
51 3 2.98421 6.91629 13.9161
37 2 3.71372 8.14776 13.9714
52 3 0.0431036 7.52854 12.4427
27 1 5.0662 4.53768 10.8642
18 1 7.65051 5.08841 10.6624
34 2 4.73229 6.95632 10.9224
85 3 5.42686 8.42352 10.6191
82 3 4.9345 6.02189 12.0597
11 1 6.34827 6.60367 13.3104
90 3 7.76055 6.59426 12.0312
46 3 5.21153 7.90083 13.6447
24 1 10.9328 4.99825 11.3786
80 3 9.17979 8.47089 10.9955
17 1 11.5254 7.33972 10.8879
33 2 9.0737 6.97496 11.3008
72 3 10.3166 6.45363 12.0614
3 1 1.87731 10.4462 12.9421
87 3 2.23858 11.3431 11.4092
64 3 0.32154 9.8852 13.4385
83 3 3.15697 9.4799 13.788
2 1 3.47438 12.8856 11.6246
98 3 7.24859 9.97424 12.5932
15 1 7.07235 11.6641 11.6385
6 1 5.53795 9.29478 12.2501
50 3 5.03741 11.2411 11.5129
53 3 12.3628 12.1465 11.7914
25 1 10.8146 11.7748 10.9267
35 2 12.3797 8.91056 12.9438
5 1 9.18546 9.71246 12.6226
49 3 9.31456 11.8446 12.3993
70 3 10.9494 9.3853 12.7603
