# LAMMPS data file written by Ovito 3.10.6

98 atoms
3 atom types

-0.0088911967 13.0965731967 xlo xhi
-0.0076514175 13.1532354175 ylo yhi
9.2127394064 15.3813095936 zlo zhi

Atoms  # atomic

1 1 3.00673 12.3021 12.7952
2 1 4.24698 0.7688 14.822
3 1 10.3446 12.6828 10.8727
4 1 4.61715 5.96239 10.5953
5 1 0.353613 10.4827 11.9648
6 1 7.52896 9.43169 10.5425
7 1 5.03194 11.4378 10.5399
8 1 3.24907 9.43628 13.7314
9 1 -0.00346292 1.07093 9.77274
10 1 6.01903 3.43942 9.35045
11 1 10.9279 3.10729 12.4174
12 1 2.28725 5.64564 12.4434
13 1 6.53925 10.5389 13.2338
14 1 0.364441 9.43238 9.22151
15 1 9.74906 11.1414 13.1528
16 1 12.3157 7.26107 10.8383
17 1 1.9984 6.01709 15.3738
18 1 11.0483 4.04743 9.69231
19 1 9.65275 5.89247 13.4454
20 1 5.64708 8.20412 9.35653
21 1 3.99278 2.42322 11.2216
22 1 0.106315 4.06573 14.179
23 1 8.48348 1.88356 10.6371
24 1 9.48217 7.34252 10.4617
25 1 7.27102 6.66983 11.8358
26 1 6.19432 4.39273 12.1958
27 1 12.6834 11.6323 14.6358
28 1 11.5463 8.95695 13.9413
29 2 5.62394 0.452978 12.2953
30 2 11.2197 0.722766 14.0924
31 2 7.46872 11.9112 9.45936
32 2 2.38122 11.9867 9.60754
33 2 12.3602 6.5978 14.2148
34 2 8.95394 8.36524 13.2641
35 2 2.80449 8.35372 10.6971
36 2 2.75606 3.15656 13.9683
37 2 4.80738 7.06774 13.7061
38 2 -0.149717 4.87634 11.1582
39 2 8.68561 4.58277 10.8416
40 2 0.876721 0.9278 12.8323
41 2 7.71041 1.90188 13.8038
42 2 10.7431 10.087 10.3385
43 3 8.8648 5.49071 9.80599
44 3 5.05859 4.16618 10.8796
45 3 10.8446 11.0854 11.5202
46 3 5.11858 8.60774 13.6954
47 3 12.9481 0.27434 13.9188
48 3 9.91396 3.15727 10.7166
49 3 11.1345 10.8506 15.2227
50 3 5.66452 11.8586 12.4446
51 3 5.32935 6.4415 14.9061
52 3 3.06752 6.57055 10.5335
53 3 1.56181 1.96995 13.6155
54 3 0.609637 6.12423 10.8319
55 3 6.86618 0.810637 13.1282
56 3 3.3287 11.6678 10.7811
57 3 7.1 7.58941 10.3884
58 3 0.340865 4.19369 12.4458
59 3 2.06545 4.13384 15.0183
60 3 4.23122 0.537787 12.9781
61 3 12.8235 3.68771 9.89902
62 3 8.8746 7.51401 14.4602
63 3 6.70853 3.36237 13.8088
64 3 2.29253 9.09612 12.0511
65 3 0.708131 6.41797 14.3917
66 3 1.38647 12.535 12.5981
67 3 11.2079 2.30018 14.1788
68 3 2.50161 0.423774 9.34256
69 3 7.41557 3.92519 10.6353
70 3 1.9022 8.58373 9.47796
71 3 4.02817 2.77254 14.8441
72 3 11.6114 7.58642 15.2102
73 3 8.20477 1.71067 15.1475
74 3 7.59238 9.0383 12.777
75 3 5.55811 1.32446 10.9869
76 3 8.46224 4.96244 12.4645
77 3 12.0926 9.22089 10.7814
78 3 11.2993 0.371152 9.51865
79 3 0.297496 1.42109 11.4635
80 3 12.0326 7.3456 12.8532
81 3 6.96547 10.9521 10.6968
82 3 9.40558 7.17954 12.1462
83 3 5.38032 6.43217 12.3155
84 3 2.85207 11.1625 14.3696
85 3 9.93219 9.39149 13.3116
86 3 3.06617 3.7544 12.6784
87 3 6.0423 12.711 15.3841
88 3 0.00456496 9.84662 13.8057
89 3 10.5267 12.8771 13.2683
90 3 11.6176 5.23353 14.5158
91 3 4.19095 9.07491 10.3493
92 3 11.5805 5.64897 11.2787
93 3 3.31433 6.5206 13.5817
94 3 9.33619 9.27405 10.3502
95 3 8.79667 1.9736 12.6915
96 3 0.995093 11.5255 9.82641
97 3 7.86844 11.4841 14.2482
98 3 8.8545 12.4066 10.1857

Velocities

1 -6.09926 -7.02549 5.866
2 -0.809541 -14.9866 10.927
3 6.0102 6.36487 12.9558
4 -6.17167 11.3508 -0.861613
5 -5.89988 -3.64629 -15.2229
6 -5.59639 7.35724 8.00893
7 20.0381 -8.90606 1.83788
8 9.7099 -1.37103 7.11091
9 2.33937 -2.09529 0.960152
10 3.84244 -1.01459 7.04998
11 15.8231 -4.189 11.2588
12 -4.1273 10.4015 -7.92194
13 9.15007 -14.1438 2.88703
14 6.11211 -24.5189 2.56131
15 -1.99295 -14.4655 14.075
16 -5.43093 -8.37985 3.43528
17 -9.23987 0.833251 6.32869
18 -15.6453 9.49122 -18.8497
19 9.12309 20.8678 -17.3257
20 0.220135 -10.2401 -0.327495
21 10.5478 9.90083 0.16612
22 0.718042 16.4511 2.17102
23 -12.725 11.174 -20.7543
24 -1.51342 9.22835 -22.4484
25 14.906 2.26527 0.261659
26 0.422016 10.8414 -5.05079
27 3.33968 -16.2274 7.48558
28 6.76101 10.3656 -10.2266
29 5.43928 1.35838 -10.5653
30 -3.37821 14.4298 -10.0351
31 -3.07676 -2.26858 16.102
32 24.1083 -4.46137 -7.05131
33 -13.3625 12.0791 -14.8947
34 -0.789685 -7.23683 5.39625
35 2.06988 15.1652 3.26871
36 4.00152 -5.48136 4.52262
37 3.23432 10.3604 -18.7452
38 3.37201 -11.6038 -7.71199
39 0.329527 -13.3399 -10.9223
40 1.82042 20.1255 2.22189
41 -5.52038 -0.667186 17.4547
42 -7.83191 -8.12945 -3.7028
43 -5.07828 -8.95475 2.99074
44 1.68987 -9.34608 0.564859
45 -4.84186 5.31125 -3.60479
46 -6.14432 4.92527 9.84743
47 -8.61847 -6.33537 -0.782146
48 1.46316 1.15137 -1.73037
49 4.05281 -13.2231 2.15922
50 4.86402 -3.40233 3.76741
51 -8.93637 5.70907 3.89817
52 11.672 -1.97348 5.2528
53 4.63265 -1.54126 3.07245
54 -8.2712 -2.06774 3.76217
55 4.47914 -5.42662 -0.164035
56 9.41633 1.10635 5.37493
57 -3.24957 3.2827 -3.81607
58 -8.52589 -4.89744 -6.56251
59 2.2093 4.97482 -5.25037
60 -1.94487 -4.99117 -1.33065
61 0.455623 0.210655 2.49353
62 -2.79181 -4.35911 -1.39321
63 -4.58556 6.1709 -12.6853
64 0.0338538 7.24138 -1.45749
65 -5.18451 6.54769 8.87987
66 1.3092 0.00413989 -6.28998
67 -2.22231 4.91292 -3.29213
68 -3.7462 -0.805879 2.87613
69 -9.75375 1.8082 2.57733
70 -14.8 -0.0102969 -4.01873
71 -4.50415 -2.23088 5.92634
72 5.55427 2.44712 13.9955
73 -7.1241 6.07538 5.83954
74 -0.108779 2.01153 6.18715
75 1.8444 -3.19413 -3.0838
76 -5.23111 1.03187 -2.3087
77 0.729752 4.25104 -6.78799
78 -9.84152 -10.8994 1.22549
79 -6.18536 3.48955 -9.24086
80 -3.6983 -1.68608 -4.6986
81 6.01733 -3.11459 -0.369506
82 10.7497 1.72968 0.659611
83 9.4664 -3.24834 11.199
84 -2.02918 1.62509 -3.26435
85 8.4409 0.762456 3.63293
86 5.52116 -9.99238 -2.17328
87 0.314458 -2.90223 7.00624
88 -3.29504 0.277172 11.5758
89 10.324 6.37523 -0.775977
90 3.43775 3.27489 5.28516
91 -0.224238 2.52896 -3.14287
92 -2.49913 5.80741 7.31063
93 4.11581 -8.88981 -16.6334
94 7.48645 -5.27154 -5.75359
95 -1.11293 -2.17529 -1.60713
96 5.77217 -0.795371 -3.46094
97 -0.155622 2.85595 0.345321
98 -2.2954 12.1144 -0.600086
