98

Li		3.00673		12.3021		12.7952
Li		4.24698		0.7688		14.822
Li		10.3446		12.6828		10.8727
Li		4.61715		5.96239		10.5953
Li		0.353613		10.4827		11.9648
Li		7.52896		9.43169		10.5425
Li		5.03194		11.4378		10.5399
Li		3.24907		9.43628		13.7314
Li		-0.00346292		1.07093		9.77274
Li		6.01903		3.43942		9.35045
Li		10.9279		3.10729		12.4174
Li		2.28725		5.64564		12.4434
Li		6.53925		10.5389		13.2338
Li		0.364441		9.43238		9.22151
Li		9.74906		11.1414		13.1528
Li		12.3157		7.26107		10.8383
Li		1.9984		6.01709		15.3738
Li		11.0483		4.04743		9.69231
Li		9.65275		5.89247		13.4454
Li		5.64708		8.20412		9.35653
Li		3.99278		2.42322		11.2216
Li		0.106315		4.06573		14.179
Li		8.48348		1.88356		10.6371
Li		9.48217		7.34252		10.4617
Li		7.27102		6.66983		11.8358
Li		6.19432		4.39273		12.1958
Li		12.6834		11.6323		14.6358
Li		11.5463		8.95695		13.9413
Be		5.62394		0.452978		12.2953
Be		11.2197		0.722766		14.0924
Be		7.46872		11.9112		9.45936
Be		2.38122		11.9867		9.60754
Be		12.3602		6.5978		14.2148
Be		8.95394		8.36524		13.2641
Be		2.80449		8.35372		10.6971
Be		2.75606		3.15656		13.9683
Be		4.80738		7.06774		13.7061
Be		-0.149717		4.87634		11.1582
Be		8.68561		4.58277		10.8416
Be		0.876721		0.9278		12.8323
Be		7.71041		1.90188		13.8038
Be		10.7431		10.087		10.3385
F		8.8648		5.49071		9.80599
F		5.05859		4.16618		10.8796
F		10.8446		11.0854		11.5202
F		5.11858		8.60774		13.6954
F		12.9481		0.27434		13.9188
F		9.91396		3.15727		10.7166
F		11.1345		10.8506		15.2227
F		5.66452		11.8586		12.4446
F		5.32935		6.4415		14.9061
F		3.06752		6.57055		10.5335
F		1.56181		1.96995		13.6155
F		0.609637		6.12423		10.8319
F		6.86618		0.810637		13.1282
F		3.3287		11.6678		10.7811
F		7.1		7.58941		10.3884
F		0.340865		4.19369		12.4458
F		2.06545		4.13384		15.0183
F		4.23122		0.537787		12.9781
F		12.8235		3.68771		9.89902
F		8.8746		7.51401		14.4602
F		6.70853		3.36237		13.8088
F		2.29253		9.09612		12.0511
F		0.708131		6.41797		14.3917
F		1.38647		12.535		12.5981
F		11.2079		2.30018		14.1788
F		2.50161		0.423774		9.34256
F		7.41557		3.92519		10.6353
F		1.9022		8.58373		9.47796
F		4.02817		2.77254		14.8441
F		11.6114		7.58642		15.2102
F		8.20477		1.71067		15.1475
F		7.59238		9.0383		12.777
F		5.55811		1.32446		10.9869
F		8.46224		4.96244		12.4645
F		12.0926		9.22089		10.7814
F		11.2993		0.371152		9.51865
F		0.297496		1.42109		11.4635
F		12.0326		7.3456		12.8532
F		6.96547		10.9521		10.6968
F		9.40558		7.17954		12.1462
F		5.38032		6.43217		12.3155
F		2.85207		11.1625		14.3696
F		9.93219		9.39149		13.3116
F		3.06617		3.7544		12.6784
F		6.0423		12.711		15.3841
F		0.00456496		9.84662		13.8057
F		10.5267		12.8771		13.2683
F		11.6176		5.23353		14.5158
F		4.19095		9.07491		10.3493
F		11.5805		5.64897		11.2787
F		3.31433		6.5206		13.5817
F		9.33619		9.27405		10.3502
F		8.79667		1.9736		12.6915
F		0.995093		11.5255		9.82641
F		7.86844		11.4841		14.2482
F		8.8545		12.4066		10.1857