# LAMMPS data file written by Ovito 3.10.6

98 atoms
3 atom types

-0.079542 13.167224 xlo xhi
-0.078601 13.224185 ylo yhi
9.179485 15.414564 zlo zhi

Masses

1 6.941  # Li
2 9.012182  # Be
3 18.9984032  # F

Atoms  # atomic

1 1 6.819121 2.420819 11.531266
2 1 5.833895 3.758255 14.191252
3 1 0.586446 8.375463 12.297056
4 1 4.743554 -0.078601 14.184953
5 1 6.325056 0.766488 15.40507
6 1 -0.079542 1.844937 9.202721
7 1 7.156422 7.307069 11.679704
8 1 7.017957 9.826715 15.365381
9 1 1.463801 -9.0e-05 11.46179
10 1 11.004538 2.050303 9.619209
11 1 4.181838 2.533099 15.37774
12 1 7.140256 4.32589 9.386364
13 1 7.802879 5.22143 11.648515
14 1 0.849247 2.373951 11.697506
15 1 6.963077 10.763942 9.230315
16 1 4.993605 5.824143 13.871223
17 1 11.249745 3.832153 13.408717
18 1 8.624593 7.483317 9.230191
19 1 12.884676 5.277018 14.909596
20 1 0.881529 13.224185 14.206722
21 1 5.801995 4.441802 12.051682
22 1 8.257419 5.445584 15.322802
23 1 7.028202 11.480311 12.829475
24 1 7.343172 2.693763 15.380528
25 1 2.518296 9.444704 10.917208
26 1 6.957057 13.159548 14.307524
27 1 9.505086 7.663033 12.023899
28 1 -0.042548 7.001079 10.732845
29 2 7.03829 6.720176 14.0221
30 2 2.72325 2.222473 13.852259
31 2 5.703492 -0.0248 9.258872
32 2 3.221559 1.93918 11.712643
33 2 0.24466 6.663303 14.046744
34 2 2.472181 9.983599 13.742787
35 2 0.00166 8.577809 9.200054
36 2 1.132981 8.169516 15.381353
37 2 0.020438 4.943568 11.863971
38 2 11.299862 6.792476 9.230273
39 2 -9.0e-06 0.228072 15.371088
40 2 4.26629 12.710315 15.316717
41 2 10.459274 10.232394 12.759724
42 2 5.639809 13.160131 11.123041
43 3 -0.002697 10.595397 11.261047
44 3 3.92644 10.698547 9.577602
45 3 10.028873 5.053765 11.052034
46 3 11.964812 4.046666 9.496216
47 3 4.876515 8.78359 9.179485
48 3 8.73199 3.4066 12.447108
49 3 12.970068 11.958834 12.798425
50 3 3.426 5.342373 15.380302
51 3 1.042937 2.352391 15.233835
52 3 6.265136 9.114272 10.809191
53 3 3.939008 1.251265 9.213979
54 3 1.827159 5.941703 11.187266
55 3 9.042105 10.374484 15.382041
56 3 2.217486 3.779028 10.287155
57 3 3.64129 3.958176 12.480295
58 3 13.167224 9.749024 11.962602
59 3 3.348624 8.025232 13.235596
60 3 0.013275 1.272372 13.382635
61 3 12.262705 9.396975 14.267886
62 3 12.358289 7.675657 11.379626
63 3 5.793609 9.151551 12.920308
64 3 2.71216 5.692134 9.219483
65 3 9.352678 1.963542 14.226952
66 3 4.084028 11.297231 13.033295
67 3 2.051344 4.456334 13.991672
68 3 10.605928 1.723118 12.469208
69 3 12.689642 0.629187 10.483095
70 3 0.795092 11.402142 15.414564
71 3 9.663379 3.771848 15.366836
72 3 9.624443 8.031605 15.334905
73 3 8.279838 9.545806 12.977748
74 3 1.752202 11.295583 9.436491
75 3 5.089414 1.214364 10.959545
76 3 0.192546 4.935604 15.379325
77 3 8.350907 13.16878 10.605523
78 3 2.303214 -3.57e-04 14.254851
79 3 0.580873 11.272981 13.256748
80 3 9.213369 12.03645 13.064709
81 3 1.970345 1.661388 9.980633
82 3 6.671653 13.168318 9.235072
83 3 5.0258 1.883956 13.36675
84 3 8.966152 0.01417 15.106521
85 3 11.013072 6.328756 15.379933
86 3 5.254532 5.463897 9.229875
87 3 4.253428 3.382198 9.58699
88 3 9.518622 11.891143 9.230306
89 3 -1.38e-04 4.56707 9.617855
90 3 12.781924 7.296862 13.511383
91 3 9.825323 9.487418 10.122875
92 3 11.862428 13.162206 9.231115
93 3 2.928147 7.828863 9.465613
94 3 12.080744 11.551467 10.824643
95 3 5.114021 8.887679 14.94133
96 3 2.624059 13.006498 12.528922
97 3 3.656023 13.168561 10.03466
98 3 7.001068 0.105918 13.43602
