ITEM: TIMESTEP
120000
ITEM: NUMBER OF ATOMS
98
ITEM: BOX BOUNDS pp pp pp
-8.8911966683022925e-03 1.3096573196668459e+01
-7.6514174794493073e-03 1.3153235417479360e+01
9.2127394064100372e+00 1.5381309593589961e+01
ITEM: ATOMS id type x y z vx vy vz
1 1 1.942 12.348 13.1682 -4.43594 -8.95128 -3.61925
2 1 4.30498 1.14251 9.73742 8.3661 1.77984 -14.6142
3 1 12.6422 12.877 15.0044 -13.193 11.0493 9.57669
4 1 5.45595 5.76577 10.3826 8.73811 -8.90393 -8.05996
5 1 1.31786 9.49858 11.0478 17.2451 -0.184668 15.9353
6 1 9.25742 7.8522 10.2086 -11.3886 -9.48732 -5.31898
7 1 5.19266 11.6316 10.7531 -5.60061 3.95653 3.22098
8 1 3.36011 9.09048 12.9302 2.28146 7.10012 -11.7714
9 1 1.00798 1.85342 10.2943 0.800515 2.42824 -12.2585
10 1 6.76606 4.42898 14.9304 7.56841 -3.38401 -0.605302
11 1 10.6596 3.36178 11.9146 6.96431 -14.219 4.73526
12 1 1.30273 6.81568 12.9613 -2.61681 8.918 -6.59475
13 1 8.7038 12.2022 12.9464 -16.159 7.47507 -10.261
14 1 6.30182 10.7949 13.838 -4.67097 11.3696 18.9644
15 1 10.988 13.1041 11.3165 5.29464 9.42855 -22.3244
16 1 11.822 7.37563 11.3168 2.62434 -9.99436 -4.50329
17 1 1.9898 6.36434 10.0044 16.1932 -8.50433 -18.0507
18 1 11.364 3.1964 14.9563 -0.757781 -2.55955 -0.705652
19 1 9.95748 5.96075 13.2635 12.0447 22.8936 20.8677
20 1 6.66477 7.32426 14.8452 9.59405 3.85783 -10.9696
21 1 3.01974 2.77038 12.0639 4.99617 4.21454 -8.7681
22 1 0.580447 4.2043 14.5416 -20.2394 -1.45264 -7.66234
23 1 7.82556 0.82515 10.7891 -5.02429 6.93693 -8.86993
24 1 7.39245 6.21111 11.8795 0.693447 -1.29445 12.0563
25 1 6.18516 8.44113 11.4644 13.5878 4.50945 3.39721
26 1 5.75914 3.1215 11.8052 5.32645 -8.29364 13.1907
27 1 11.0427 8.82576 14.1744 -8.13387 -13.052 3.71522
28 1 1.37968 9.71008 14.5399 6.74231 -2.3941 6.41977
29 2 4.82439 0.278156 12.9927 0.133568 3.66022 1.66842
30 2 9.73538 1.30368 14.3463 6.03831 6.82563 -8.25997
31 2 7.72779 11.6436 9.93715 -2.33051 -5.32931 -4.73492
32 2 2.25921 12.2035 10.2689 -4.28303 10.3825 6.8771
33 2 11.9 6.34099 14.4824 -1.07483 -6.61801 2.99706
34 2 8.54675 8.74577 13.1497 -2.93444 -9.68166 -3.81952
35 2 3.7887 8.82557 9.56653 -6.06497 -7.11698 -3.25152
36 2 3.31108 3.44202 15.2845 -4.77212 -9.45752 -0.13991
37 2 4.92139 6.30755 13.2393 0.614813 5.97381 -5.7696
38 2 0.165095 4.76816 11.5248 -3.15076 -13.3039 -1.81295
39 2 8.70351 4.19792 10.6559 1.492 -6.28857 -2.27603
40 2 -0.0501779 1.65025 13.0315 -6.76292 0.0336478 0.45548
41 2 6.85479 1.92462 13.8916 -10.5544 2.24288 3.08495
42 2 11.5759 9.89141 10.1656 11.4783 -15.4703 -2.4153
43 3 8.47079 4.94254 9.27292 3.40479 4.55298 -5.60571
44 3 4.73352 3.7297 9.83149 -11.347 1.11177 -3.31074
45 3 11.5314 11.6089 10.3736 6.62533 -3.66902 -1.37963
46 3 5.48506 7.59991 12.8123 -3.71217 2.68751 -1.73361
47 3 0.0651699 2.44699 14.4574 0.893578 5.86755 0.69675
48 3 9.8758 3.13611 10.5007 -0.383219 -1.15727 -1.01095
49 3 12.6615 9.97631 14.9736 -4.60663 3.54289 1.46906
50 3 5.49504 12.1373 12.5739 -0.173279 4.19568 -3.94163
51 3 5.86807 5.8498 14.3275 4.2518 -1.00332 5.72334
52 3 4.24462 7.25027 9.36889 3.8028 -1.30145 7.2318
53 3 1.20415 2.06078 12.0411 -5.05613 6.98255 4.36598
54 3 0.588053 6.21452 11.0484 -7.66678 -9.02125 4.08358
55 3 5.30176 1.21484 14.2814 -1.75753 -0.947529 1.21316
56 3 2.21854 11.2102 11.4414 2.91095 -1.26657 -6.05079
57 3 6.97996 7.10409 10.3898 6.30662 3.72531 1.7547
58 3 1.13373 4.49392 12.7 2.38749 -3.88279 2.08835
59 3 2.15923 4.46819 9.42383 0.0122833 -3.18466 1.96736
60 3 3.41734 13.0483 13.4511 1.71955 -1.21158 -1.16767
61 3 0.199238 3.66533 10.356 1.94634 3.06543 -3.08394
62 3 8.52106 8.08473 14.4855 -2.61981 7.86345 1.0793
63 3 7.00433 3.3915 13.4449 -5.01389 2.94494 -2.59664
64 3 4.34517 9.53797 10.7063 8.93155 -4.23498 2.9338
65 3 0.212917 6.75563 14.5161 3.66238 -2.02092 2.61645
66 3 0.28976 0.229451 13.4975 -3.81554 2.97024 0.792714
67 3 10.2081 2.78571 13.6303 4.47267 7.79167 -2.5134
68 3 0.934332 -0.0717528 10.0915 -0.400218 -12.9052 2.49882
69 3 7.27365 3.11455 10.572 9.47376 -7.70998 0.657746
70 3 2.22272 8.64068 9.74786 -2.52591 1.44589 4.77901
71 3 2.81671 2.19186 9.68387 -2.67784 -1.65987 -9.35651
72 3 11.2678 6.84915 9.64148 -1.54694 -8.12573 -6.69055
73 3 8.11797 1.51006 14.7157 -2.75422 -5.13056 -0.687146
74 3 7.09918 9.73485 12.9445 8.43803 2.91086 3.13764
75 3 4.67501 1.38157 11.8878 -0.414545 8.1509 4.28669
76 3 8.88649 4.99887 11.9543 1.96563 6.85246 7.65429
77 3 12.2109 9.16898 11.3417 1.02785 -1.44855 -1.47514
78 3 10.9251 1.09801 9.29698 -0.177362 5.82182 -1.21656
79 3 12.0197 1.66045 11.9725 1.76572 -3.44743 -4.3352
80 3 11.243 7.27029 13.1595 -1.22167 5.36528 1.00722
81 3 6.88524 10.328 10.3141 2.78662 -7.11719 5.41594
82 3 8.58669 7.71211 11.9459 -4.93416 4.01824 1.7512
83 3 5.77477 5.13819 12.1622 5.47504 -1.40584 -1.63493
84 3 3.64901 12.863 10.5448 -0.239068 3.97595 2.39458
85 3 9.56293 9.84736 12.8945 -6.09074 -8.98324 7.31141
86 3 3.31941 3.15885 13.7122 1.68702 -1.45968 -3.03591
87 3 6.39794 12.585 9.77767 -0.0328241 -2.51589 7.30577
88 3 1.76195 8.55369 12.6187 -8.77162 -2.69136 2.79815
89 3 10.0548 0.327279 13.1544 -5.68867 2.42772 -2.14611
90 3 11.4491 4.91262 14.2789 -1.48189 3.77556 -1.6824
91 3 3.92934 9.49058 14.378 2.79769 9.35631 -4.39518
92 3 11.7924 4.98 11.8781 -3.50166 10.7584 2.82118
93 3 3.44953 6.57589 13.0071 -2.88392 -3.37568 -2.59605
94 3 10.2717 9.35066 9.58659 -4.65032 5.18099 8.30727
95 3 7.2085 0.893183 12.6343 3.58821 -6.00373 3.95788
96 3 2.05982 11.3572 15.138 -3.56115 -0.333586 -9.06932
97 3 8.2408 11.5827 14.5506 4.84981 5.23607 -1.00672
98 3 8.70419 12.4962 11.1196 1.58066 -9.25946 1.53898
ITEM: TIMESTEP
140000
ITEM: NUMBER OF ATOMS
98
ITEM: BOX BOUNDS pp pp pp
-8.8911966683022925e-03 1.3096573196668459e+01
-7.6514174794493073e-03 1.3153235417479360e+01
9.2127394064100372e+00 1.5381309593589961e+01
ITEM: ATOMS id type x y z vx vy vz
1 1 9.20645 11.6247 14.2219 1.60856 2.04552 7.24693
2 1 0.796183 1.30709 10.0461 21.6617 24.1467 -2.40294
3 1 2.30936 11.0913 12.7546 2.59244 -18.7803 -9.88467
4 1 7.26602 5.26721 10.4365 -5.50532 9.22248 -1.88128
5 1 0.765794 13.3469 13.4846 -4.85493 19.8097 -16.3375
6 1 9.22992 7.01735 15.4661 12.502 -12.1611 7.1756
7 1 9.70617 1.759 12.9591 -3.97293 -5.34032 6.23316
8 1 5.19557 12.8621 10.3947 -6.27248 -4.36885 -2.83708
9 1 12.744 2.65849 11.7439 -7.65292 10.8347 -1.38596
10 1 10.9911 4.71577 14.1301 -14.8178 0.228568 -3.2284
11 1 0.587478 4.59921 14.9266 -18.1328 7.7754 -13.485
12 1 1.54054 9.07704 14.9908 21.8195 10.5348 6.18537
13 1 6.56549 11.3229 13.1005 -2.71108 14.0444 -8.34298
14 1 6.18921 3.55389 13.2472 5.68501 19.5046 18.4476
15 1 9.74257 10.0574 10.7475 -6.32563 4.77809 -7.38368
16 1 4.65475 10.4575 14.873 12.0027 7.77605 8.29444
17 1 2.02558 7.40291 12.8644 8.04525 -18.2705 -11.0354
18 1 10.7856 5.07338 10.7393 -4.7595 -3.89053 4.70189
19 1 0.352444 9.1597 10.9819 -21.15 4.17353 -22.2345
20 1 11.4179 7.78438 12.0205 -4.16269 -8.10945 -0.553821
21 1 2.4108 6.66118 10.1071 -3.3009 -4.09378 6.37153
22 1 3.11834 2.49698 12.4903 3.01093 6.32485 8.495
23 1 8.65534 0.596811 10.389 -2.97062 -6.49093 0.746531
24 1 6.84886 8.25995 10.2498 19.0821 6.21597 -0.983478
25 1 7.06693 6.58975 13.4795 -1.2848 4.44944 5.97474
26 1 5.92777 2.67086 10.6478 -12.9015 9.4066 -17.7807
27 1 12.3353 10.0076 13.6511 -10.7159 13.9104 9.39665
28 1 3.88706 8.76119 11.0814 5.43423 -4.96691 9.16425
29 2 4.18826 0.287809 12.908 -3.19169 9.83755 -17.1655
30 2 10.6753 2.04917 9.81703 12.3382 -2.89654 -6.83122
31 2 7.41925 10.9257 9.81526 -2.27893 0.969866 3.65323
32 2 2.37494 11.7893 9.61523 15.9176 9.29699 -13.5343
33 2 12.0788 7.16968 15.206 19.658 6.36532 -5.38728
34 2 8.72863 8.41033 12.6436 -3.9472 -7.91485 5.91647
35 2 4.4355 7.93285 14.0879 -4.34059 5.49407 -3.61857
36 2 3.00525 3.33854 9.55787 1.1856 11.3484 0.24374
37 2 4.62417 5.98333 12.0845 -2.72952 -6.81678 7.82159
38 2 13.1434 5.18989 12.1366 4.40291 -0.242234 -8.43575
39 2 8.51384 4.27681 12.2145 -4.51308 -6.10071 5.45011
40 2 11.6976 12.665 12.3477 0.652725 2.14546 8.68459
41 2 6.52959 1.05855 14.3393 10.3482 -5.18508 7.01933
42 2 12.0483 11.1138 10.0476 -5.38159 6.36352 12.6891
43 3 7.67145 5.08492 13.2128 -3.79283 -0.251295 4.44811
44 3 4.58937 3.6841 9.82984 -0.931252 12.8165 10.4781
45 3 11.8762 12.5539 10.7126 1.54104 3.56155 2.86165
46 3 5.81452 6.35018 11.1445 -5.13027 -0.269526 -2.79676
47 3 12.2743 1.94454 9.88436 -3.36225 7.29961 -4.68485
48 3 9.65512 3.60771 12.9973 3.85077 0.11083 -5.83676
49 3 0.375261 10.6681 9.60288 -3.01596 -11.8527 15.6396
50 3 4.76353 12.0788 12.5653 0.281173 0.131417 -1.49293
51 3 4.49191 4.56566 12.5752 -8.06975 -5.1571 1.75691
52 3 5.08461 8.47841 9.31449 -10.344 -2.73904 -6.46424
53 3 12.2409 0.98292 12.7484 5.37159 -1.65212 -5.38905
54 3 1.10998 6.02592 12.4949 -0.246713 8.77791 3.73183
55 3 5.01705 1.14337 14.2385 -2.13482 0.979343 -11.2132
56 3 1.99516 11.1823 11.0901 -5.31791 -5.98345 8.73425
57 3 7.47922 6.67628 15.3496 5.7561 -16.4594 1.97494
58 3 13.072 4.0251 13.2266 3.52235 -2.91454 -3.84765
59 3 2.30938 4.79794 9.35013 7.55106 3.70874 -5.67946
60 3 2.78226 0.305074 12.9732 7.49907 -4.65726 -0.196137
61 3 13.3062 4.49123 10.8373 9.83296 -3.7469 -2.52152
62 3 9.51202 7.7309 13.7113 6.35619 -10.3294 6.67773
63 3 7.19075 2.34943 13.9501 -12.1869 -5.45158 7.5471
64 3 1.06879 9.09576 12.8112 -6.80707 -6.95958 -2.52632
65 3 13.2575 6.14451 14.6201 11.454 5.78004 -5.08108
66 3 12.8783 11.9461 12.9706 -2.07985 -1.84296 11.1141
67 3 10.7023 3.52583 9.47321 -4.53559 -0.603616 -3.60662
68 3 1.77098 0.177834 9.39093 3.98215 3.26482 2.94761
69 3 7.39413 3.57382 11.2541 -0.976442 1.91196 -5.20751
70 3 2.88831 7.5611 14.5537 5.72981 0.996878 2.87457
71 3 2.31748 2.68086 10.7755 -6.03098 2.794 0.152326
72 3 12.4465 7.80572 10.3628 -4.80734 4.28401 4.32414
73 3 6.47916 0.770268 9.78249 -2.39045 3.26892 11.0392
74 3 7.36798 7.90895 12.1499 5.11754 1.33244 -1.11319
75 3 4.70176 1.48574 11.8301 4.46718 2.65521 17.3238
76 3 9.13984 5.29918 11.1371 -4.52053 12.0349 -2.99363
77 3 11.6432 10.2064 11.3778 3.89909 2.73672 1.71552
78 3 9.8599 1.79385 11.1345 -2.66506 3.16113 2.761
79 3 10.1772 12.5268 12.8852 -4.24781 4.24716 -3.28439
80 3 11.9733 8.20664 14.164 -3.8131 0.01036 -0.782127
81 3 8.14488 9.57003 9.85028 -4.66861 1.00864 6.7105
82 3 9.58825 8.14379 11.3984 -2.52706 -5.36423 1.02711
83 3 3.59951 7.06592 11.6285 4.70513 -8.9306 -0.230885
84 3 4.00537 11.8325 9.62106 0.950724 6.57627 -2.61332
85 3 8.71165 9.98409 12.9243 -4.91065 -6.70617 -11.5585
86 3 2.76983 2.73517 14.3169 -1.34031 2.23376 13.0129
87 3 6.45812 11.1552 10.9699 -4.21676 -2.71642 -4.72146
88 3 2.28431 8.95002 10.5554 7.78406 7.27818 2.85479
89 3 9.76467 1.28994 15.0371 12.0272 -4.10528 -4.56099
90 3 10.7241 6.11388 15.111 -4.64426 -14.2729 1.61946
91 3 4.37396 9.25784 13.2132 0.441882 -5.0869 -9.16884
92 3 11.7396 5.75806 12.2752 2.08744 3.65891 -8.28331
93 3 5.36978 6.70368 13.6203 -3.74907 -3.3765 -8.07738
94 3 10.9955 10.7242 15.203 -1.37965 2.12223 -3.09328
95 3 7.5962 13.0876 13.5375 5.41273 -3.35888 3.02189
96 3 2.33565 10.8657 14.4753 -0.841069 4.01797 9.24242
97 3 6.29749 10.974 14.7978 3.01232 -12.1239 -10.2444
98 3 8.68037 12.0261 9.85867 -8.43867 -9.00919 -8.87352
ITEM: TIMESTEP
160000
ITEM: NUMBER OF ATOMS
98
ITEM: BOX BOUNDS pp pp pp
-8.8911966683022925e-03 1.3096573196668459e+01
-7.6514174794493073e-03 1.3153235417479360e+01
9.2127394064100372e+00 1.5381309593589961e+01
ITEM: ATOMS id type x y z vx vy vz
1 1 11.2619 4.46097 14.664 7.72176 8.63839 -6.03148
2 1 3.52473 11.8063 13.5243 12.9107 -1.91834 1.50835
3 1 6.64755 11.3558 15.2694 10.3267 3.82581 -1.77889
4 1 3.86923 3.48983 10.6895 6.02484 22.7384 3.39399
5 1 4.83506 1.12081 9.57523 -6.89465 6.49846 8.48281
6 1 5.57468 6.73767 10.2248 4.70531 -1.95383 -3.0353
7 1 6.51317 4.27457 11.5508 -6.3492 1.8161 -2.96097
8 1 9.5391 2.07342 12.6075 -15.5404 -14.4818 9.91082
9 1 9.31098 12.5073 10.46 -2.48191 -6.87946 12.3877
10 1 1.25928 9.0253 9.94986 9.02586 6.71461 1.27615
11 1 1.42443 0.803345 9.74607 -25.8661 1.66907 -0.0897037
12 1 11.6718 9.68283 13.508 -3.84965 -7.81663 -14.443
13 1 9.2098 8.12654 14.7665 0.940134 -9.67408 3.00849
14 1 2.70526 2.86096 14.0855 11.9057 0.0457407 12.2041
15 1 6.87157 8.61709 13.2671 2.23709 -6.08207 -7.76038
16 1 6.33395 12.0482 12.2611 -13.0655 -11.5269 -14.9277
17 1 13.0874 7.11639 11.3295 1.14213 2.37028 3.55855
18 1 11.0514 4.14293 11.5158 -4.55167 -11.392 -9.42206
19 1 1.58361 7.95145 13.1605 5.72268 5.75506 -6.41707
20 1 6.22862 4.20435 14.7652 4.36512 -11.2958 5.69802
21 1 3.44629 8.9164 11.3394 20.8811 6.84343 18.607
22 1 1.92423 0.869324 12.3697 -0.674751 -0.520012 3.6572
23 1 11.7757 1.66762 10.3667 -1.48364 16.3195 8.19934
24 1 11.0131 12.7239 14.0579 -8.86256 13.9609 -5.38653
25 1 8.45445 5.65367 10.0152 12.8916 -3.27255 6.44241
26 1 9.95098 7.86558 11.8564 -3.50604 -0.650532 5.89485
27 1 10.8993 9.50257 10.2663 -0.964107 0.711178 -10.0409
28 1 1.28536 5.10493 14.0863 3.45546 -5.82668 -0.795512
29 2 5.3464 1.50879 12.6784 0.00553578 -3.01004 5.6636
30 2 9.03203 2.69313 10.2449 14.4073 9.64841 15.0145
31 2 9.04992 10.7539 13.213 -5.8767 -0.125219 22.9129
32 2 3.5771 11.9273 10.3077 1.43599 7.94036 -12.1616
33 2 12.1236 7.18241 14.6131 -4.38629 -19.2412 -9.68121
34 2 7.23032 8.80097 10.2138 -11.1279 12.0552 7.93817
35 2 4.08482 9.07174 14.4607 11.8399 -6.56751 -4.20364
36 2 1.21261 3.71902 10.6644 -2.02409 0.234515 2.30876
37 2 4.24553 6.15027 13.1415 -1.44328 3.40693 0.766737
38 2 12.5575 2.46257 13.5856 -10.0952 -13.4586 -12.5309
39 2 8.66805 5.27837 13.1161 1.14383 -0.101707 -7.15732
40 2 0.508501 11.2422 13.927 4.12746 4.8178 10.3055
41 2 7.81444 1.05159 14.5681 -13.6684 -7.79366 5.36907
42 2 12.4553 12.2676 10.3644 -7.88482 -2.5676 -2.82568
43 3 9.12637 6.25556 14.1028 -1.39071 0.0996509 -11.3796
44 3 2.34498 3.88237 9.43012 -5.65442 -2.96514 -8.44168
45 3 12.2566 11.4561 13.1129 5.93366 -11.3443 8.59105
46 3 4.54844 5.97477 11.5923 -6.59831 -2.45887 5.49016
47 3 10.0086 3.93375 10.0258 1.30436 2.43258 5.48246
48 3 9.97837 3.95026 12.977 0.529562 -5.70185 -9.53404
49 3 12.7049 10.694 10.5155 -0.212334 -2.18797 -5.97626
50 3 5.34696 2.95123 12.1939 -10.5635 -5.69727 2.23232
51 3 4.94547 5.15397 13.8657 7.08472 3.75359 -4.99964
52 3 4.24253 8.712 9.74147 7.76444 4.18797 7.05623
53 3 0.280903 12.538 15.1473 -8.09408 5.81943 -6.99627
54 3 12.8696 4.04197 13.9282 -2.53886 2.31785 -0.734129
55 3 6.42151 1.22102 13.8958 0.670408 -7.51305 4.69814
56 3 4.24121 11.6163 11.7219 -6.0266 -6.48194 -3.19954
57 3 6.57318 5.26465 10.1245 12.8609 -5.66542 -1.36203
58 3 1.10256 2.02061 13.8459 7.20982 10.0121 0.920224
59 3 0.47969 5.02081 10.9382 0.548854 -1.81832 -14.5501
60 3 5.89956 0.548994 11.6073 -4.66381 8.05652 1.8671
61 3 11.8016 2.48271 12.2007 -3.36839 2.4984 5.76932
62 3 7.19665 7.89243 11.4617 10.236 -3.29485 2.81257
63 3 4.84742 2.908 9.39851 6.1071 7.40158 -2.55098
64 3 11.4269 8.60567 11.8429 -6.65025 -11.6412 9.44957
65 3 12.7187 6.98148 13.1613 14.0759 3.80634 2.23431
66 3 1.75866 11.9 13.2948 -6.00444 1.89553 -4.15377
67 3 8.07715 2.49224 15.183 -5.66584 1.87461 3.43571
68 3 3.05377 0.175454 10.3487 -2.30156 -6.46487 2.62331
69 3 7.36356 4.45104 13.2705 -2.53275 -3.27605 7.774
70 3 2.71444 9.07442 13.9316 1.96224 -1.00114 15.5055
71 3 2.41366 3.08457 11.7556 -0.55015 -0.641465 -5.76537
72 3 11.0202 8.37735 14.4558 8.81444 7.11993 -13.1743
73 3 7.73063 12.7955 9.25093 -1.5259 -2.03951 -2.66215
74 3 7.19444 8.10209 15.0728 7.48282 -1.19529 -3.23481
75 3 3.91985 1.03357 13.1731 0.543996 9.55009 1.44156
76 3 9.08516 6.25726 11.5488 -6.97364 -1.71135 9.97785
77 3 11.0575 12.8277 9.85935 0.181231 -8.52703 12.9553
78 3 7.88734 2.97815 11.2351 -5.81275 -8.83869 -2.82787
79 3 0.295161 9.53834 14.2389 0.285332 -10.5956 -7.9234
80 3 11.3166 6.09009 9.19476 -11.565 -1.73396 -3.38235
81 3 7.3795 11.1532 13.558 13.6861 3.03144 -7.59646
82 3 8.87348 8.99775 10.3395 -3.36549 -6.98201 0.573838
83 3 2.59881 6.3392 13.4389 0.445275 12.6424 3.77231
84 3 4.74085 12.2557 15.2734 5.26344 0.340878 -0.95559
85 3 6.76221 10.2622 10.6027 9.23284 -0.260105 -7.48785
86 3 0.298045 2.52764 10.3849 -1.02925 6.50932 4.98018
87 3 10.1257 11.1387 14.3805 -4.85069 -3.52681 -7.46043
88 3 1.72361 8.24116 11.5049 8.7013 4.59329 1.48479
89 3 10.0009 1.54218 10.8454 -4.90093 -3.10179 1.55738
90 3 -0.00919599 7.63701 9.79396 -7.98167 -2.19544 1.30528
91 3 4.8351 10.245 13.8351 -4.67947 1.02955 1.77447
92 3 11.7387 1.74508 14.5906 0.59573 4.57539 3.11912
93 3 4.94156 7.74391 13.4361 2.23159 -6.91372 -2.32283
94 3 13.1523 0.087493 11.2673 12.6081 6.58516 -5.53256
95 3 9.1323 0.960753 13.6805 2.54372 5.26085 2.58408
96 3 2.5536 10.9218 9.91635 -4.07221 8.11369 -6.32749
97 3 9.16434 11.5039 11.8672 -9.06617 10.5151 -2.03295
98 3 8.78075 9.20679 13.1686 -6.46259 7.06808 3.07015
ITEM: TIMESTEP
180000
ITEM: NUMBER OF ATOMS
98
ITEM: BOX BOUNDS pp pp pp
-8.8911966683022925e-03 1.3096573196668459e+01
-7.6514174794493073e-03 1.3153235417479360e+01
9.2127394064100372e+00 1.5381309593589961e+01
ITEM: ATOMS id type x y z vx vy vz
1 1 10.8206 4.67329 12.205 12.3451 -1.31439 -22.6997
2 1 0.833221 11.5479 14.648 3.11423 -14.491 18.6552
3 1 5.92285 11.4214 11.0069 6.73222 -10.0642 -3.09908
4 1 5.72854 4.62422 13.8954 -3.74326 -1.8293 13.566
5 1 5.17684 4.47729 10.6791 -6.18589 -5.57195 -1.4244
6 1 8.62877 7.4716 14.238 2.83339 -3.53207 -11.9967
7 1 7.05663 2.1636 13.1142 -13.3131 -15.0648 3.84705
8 1 9.88799 2.44179 14.4803 -2.91511 22.2133 12.488
9 1 1.06026 8.68693 15.0497 -9.24947 3.51924 10.8969
10 1 12.4149 3.64163 10.1095 9.92142 -8.53394 4.0663
11 1 4.32544 1.35477 11.1412 2.62163 10.9477 18.7701
12 1 2.06043 7.91757 11.8485 0.334092 0.372254 5.61458
13 1 8.0981 6.91295 11.2559 -1.94039 -4.92304 11.9979
14 1 3.13652 6.12697 9.1901 10.1402 -10.7326 2.86593
15 1 3.22691 11.2848 12.2762 4.61483 1.11916 -5.20085
16 1 9.32748 12.5485 9.28533 13.2358 4.66914 5.91525
17 1 5.4434 7.53268 9.98962 -3.38079 -5.15332 -20.6567
18 1 10.2717 9.54111 13.5587 11.0302 9.28655 -15.4545
19 1 6.391 13.4012 15.1388 -2.25123 -9.36615 4.64783
20 1 2.51867 3.91553 13.5642 -10.7839 -3.16664 6.3454
21 1 9.51109 8.84559 9.85144 5.92757 2.29537 10.2521
22 1 1.22768 1.05882 12.0313 -9.78644 -5.2245 -5.50564
23 1 1.962 0.653883 9.32303 1.83232 5.7229 10.8362
24 1 10.8925 12.4695 11.9544 -11.9094 9.62667 -17.0508
25 1 9.28461 5.06476 9.8062 14.4419 -0.0134115 6.98764
26 1 6.51085 9.88736 14.5135 -11.3062 13.0276 -17.1887
27 1 11.981 6.81574 10.3982 -6.30215 -6.0863 -0.819139
28 1 -0.07117 4.67013 14.4296 -3.73746 -11.0363 -9.59607
29 2 4.10087 1.9979 13.9045 2.91776 5.94359 -9.29167
30 2 9.37405 2.04573 11.3116 -0.948813 -6.09521 0.294143
31 2 7.97111 11.8023 12.7652 1.41176 -14.5955 1.13817
32 2 3.73303 11.9646 10.0018 -9.00379 13.6371 0.151929
33 2 12.4698 7.07601 13.6798 -2.45343 12.2351 14.2301
34 2 7.39534 9.32424 11.4226 -12.108 -3.32869 -9.1168
35 2 4.45581 8.6851 13.9861 3.02646 3.48591 -6.52928
36 2 2.04258 3.63131 10.4978 -5.976 0.294711 -15.8264
37 2 3.66111 6.27518 12.423 14.699 12.1116 3.42479
38 2 12.4545 1.18954 14.059 7.93026 1.53074 -7.38454
39 2 8.28346 5.03582 13.2721 -9.83788 -14.0541 -3.61425
40 2 0.676449 10.4124 11.9605 -14.6887 -2.59222 -8.6212
41 2 7.09932 2.73939 10.0456 10.7766 0.929585 0.646638
42 2 11.7001 10.0141 10.1906 -8.73781 7.17912 2.13672
43 3 7.52146 6.35001 13.4739 1.15447 6.15275 -1.91729
44 3 1.60878 4.24441 9.09602 -11.7883 -2.34326 -9.94141
45 3 12.1626 10.7122 11.8106 -7.10326 -11.8252 14.2857
46 3 2.94865 5.78093 13.6451 -4.47782 -0.495305 -6.56083
47 3 9.98442 2.98337 10.2163 0.0665834 2.51842 -5.94224
48 3 9.28912 4.58257 14.294 -6.11891 7.34579 1.37072
49 3 11.234 8.65867 10.4637 -1.60945 6.3456 -10.2424
50 3 5.39511 1.29471 13.3838 -8.46604 5.81217 -3.73107
51 3 2.90017 6.38845 11.0591 1.48265 0.690759 -4.87967
52 3 3.59172 8.16955 15.1977 -0.349125 6.94332 8.68801
53 3 12.8016 10.1965 15.3397 8.13201 9.58678 -4.09876
54 3 10.8896 0.748968 14.6762 3.45384 15.4926 -9.81981
55 3 7.42204 4.21271 9.7129 0.470669 3.56375 8.3434
56 3 5.22929 12.2746 9.42018 -7.67012 6.36685 3.00167
57 3 8.91423 7.08753 9.71838 -4.67839 -0.085219 8.15624
58 3 12.4126 1.23788 12.4847 4.24715 -6.52028 -2.43928
59 3 0.95734 4.17038 11.5774 0.177661 -6.59587 6.6346
60 3 2.66168 1.82168 13.0295 1.23162 -9.21389 -1.31312
61 3 0.323138 0.244569 14.5704 -1.75117 -11.8845 -7.52556
62 3 6.49714 7.97184 11.233 -2.72702 -9.03554 -0.876123
63 3 4.99914 5.70026 9.29917 3.67214 -3.66525 -0.835651
64 3 11.692 5.10516 10.5424 -1.44328 0.627522 2.75419
65 3 11.8288 5.68109 13.4513 12.6715 -0.0738668 4.89045
66 3 1.14069 11.7839 11.8083 0.860899 -0.946278 1.70959
67 3 7.90787 2.2982 11.4171 -1.14961 10.0095 -1.93338
68 3 3.67057 12.8978 11.326 11.3106 0.356934 8.38142
69 3 7.05819 3.89964 12.9757 2.41005 6.35856 2.33179
70 3 4.62257 10.1833 13.4321 -5.01787 -13.1771 -4.6992
71 3 3.39353 3.97092 10.9665 -1.78242 -6.84586 -8.07706
72 3 0.399412 7.17528 12.5723 0.308193 2.27787 4.80582
73 3 5.70704 2.55944 10.5048 0.174827 2.01626 -1.72019
74 3 6.90902 10.243 10.2422 -6.08822 0.582595 2.90053
75 3 4.20351 3.45826 14.0047 6.71993 -4.06632 -5.4943
76 3 9.15749 5.48013 11.9339 -11.4029 -5.98474 5.37379
77 3 1.32382 10.0783 13.3255 7.36065 9.72253 -3.89675
78 3 10.1874 2.71782 12.6224 -1.712 1.06699 -0.0968354
79 3 1.19966 9.3056 10.8289 -0.737582 0.886575 -2.24576
80 3 11.47 8.21776 13.696 0.870318 -4.26647 4.88959
81 3 7.05082 10.3068 12.5404 1.60593 3.25656 -8.87058
82 3 8.89842 9.09492 14.3863 7.32279 -1.73719 -7.22922
83 3 5.11098 5.43163 12.2383 -0.794604 -6.04429 6.23059
84 3 3.83298 1.39423 15.264 -2.85367 10.9461 -0.0756343
85 3 8.78875 8.82555 11.5712 -2.67156 0.247895 -0.652929
86 3 1.65166 2.06835 10.6847 3.90301 -9.59464 0.764312
87 3 7.57816 12.3103 14.269 1.60342 -9.5736 7.80466
88 3 3.67383 7.75317 12.8309 -8.72676 -5.00401 5.84458
89 3 9.8185 0.52013 10.7828 7.64395 -9.20309 3.51483
90 3 0.248301 6.89664 15.0274 5.65328 1.54406 11.6441
91 3 3.96339 10.6463 10.6385 -4.2025 -7.9431 2.25024
92 3 12.7738 2.70192 14.6585 0.742618 0.938053 5.12642
93 3 5.87672 8.26495 14.2243 6.85884 1.62874 11.3104
94 3 10.5405 10.89 9.74822 9.50722 -3.61067 7.02185
95 3 7.5365 1.62639 15.1741 9.09536 14.4492 -5.6528
96 3 2.61178 11.845 15.0964 4.176 8.61028 -8.39752
97 3 7.04915 12.4503 11.8465 0.0199493 3.64855 -6.79483
98 3 9.36163 11.4355 12.5847 -9.52634 3.99623 -2.10471
ITEM: TIMESTEP
200000
ITEM: NUMBER OF ATOMS
98
ITEM: BOX BOUNDS pp pp pp
-8.8911966683022925e-03 1.3096573196668459e+01
-7.6514174794493073e-03 1.3153235417479360e+01
9.2127394064100372e+00 1.5381309593589961e+01
ITEM: ATOMS id type x y z vx vy vz
1 1 4.74581 10.395 11.1661 7.58265 -10.7394 -7.66359
2 1 1.09629 12.413 13.964 8.75519 -4.64304 16.4837
3 1 9.31456 1.87467 14.7938 1.87738 8.96578 12.9714
4 1 0.73343 5.18601 14.832 2.26067 -17.0005 -15.6821
5 1 4.57386 3.24912 13.5882 3.93273 -9.16817 12.357
6 1 6.20955 6.91376 15.11 -3.46336 7.77193 8.13454
7 1 7.03647 13.2614 10.2837 -1.86344 13.2512 11.2861
8 1 1.59962 12.9151 11.0327 1.29047 8.29577 18.7396
9 1 13.0229 10.8142 10.0904 18.7918 0.720905 -6.02742
10 1 8.7094 7.95395 13.6068 -6.20477 -13.33 9.67216
11 1 4.68171 1.5323 10.5506 1.27533 6.59195 -4.22086
12 1 4.37317 7.10877 11.8642 -0.803317 1.92149 5.01863
13 1 8.39558 4.83609 14.3897 -5.63494 1.16806 -4.91905
14 1 12.8528 5.41258 11.6174 -0.138098 -6.59125 -9.62038
15 1 7.30794 2.31121 12.3155 -0.344512 11.3218 13.0154
16 1 4.53361 9.84079 13.4424 20.2266 0.862051 2.81466
17 1 8.20504 10.6081 15.2606 17.1722 -12.7228 -6.40853
18 1 -0.0651636 7.72646 9.90047 -2.62113 -3.23873 23.5189
19 1 2.53019 10.2399 9.41983 9.44692 -1.19626 0.103678
20 1 2.195 2.04652 14.369 -11.8309 -2.81916 -5.78997
21 1 8.35203 7.66254 10.412 -6.67777 13.2454 -5.59472
22 1 12.4715 8.48665 12.7534 -12.6205 9.43083 -4.59336
23 1 12.2833 1.25164 10.6541 -10.6017 -10.0701 1.45271
24 1 10.7649 12.5858 15.2817 16.3419 -6.04628 14.042
25 1 11.0069 4.04514 9.54158 -2.64029 -4.89067 19.1093
26 1 10.9762 11.5746 12.0894 -6.79772 11.9089 -16.688
27 1 10.4761 6.5258 11.5395 9.17286 1.72439 7.71549
28 1 5.3184 5.0989 10.51 11.8615 -11.3679 2.60464
29 2 4.23308 0.566303 12.8426 5.35092 4.25717 -3.69597
30 2 10.406 3.07285 11.7322 -6.67682 5.40824 8.99399
31 2 8.46064 12.7489 13.1933 13.3395 6.28726 -9.46254
32 2 5.0655 12.16 14.7463 4.01345 -2.57315 11.3411
33 2 10.9735 6.53729 14.7421 -14.4138 -10.4228 1.12721
34 2 7.6865 10.2183 12.1521 -1.53015 -0.118262 2.88794
35 2 3.5559 7.13481 15.0331 5.89693 6.23799 11.9786
36 2 1.38549 2.92476 10.5704 11.3197 7.6125 -14.8072
37 2 2.56814 4.82748 12.3935 5.89994 -11.5395 -13.3338
38 2 12.3442 1.92922 13.6997 -1.568 -6.64396 -5.47275
39 2 7.19778 5.8254 12.1158 -9.24998 -14.6407 -4.05944
40 2 1.48954 10.2759 12.4841 -1.9316 -11.9218 -4.39899
41 2 6.70478 3.12404 9.37066 -2.9991 -9.36142 -4.31357
42 2 11.4823 10.3529 14.4318 -2.35459 -14.0825 7.15279
43 3 7.20327 4.57487 9.85573 4.07707 3.06061 -10.8554
44 3 2.47117 2.99498 9.46958 -4.00077 1.43203 -3.73168
45 3 1.12906 11.7536 12.3223 -0.603585 1.38792 -5.35461
46 3 1.16134 5.29166 12.7764 -1.74246 7.68428 -3.99059
47 3 11.101 4.55947 11.2742 -13.0156 2.04861 -10.1849
48 3 6.47998 4.6278 12.525 -4.39481 4.57187 -0.227836
49 3 12.4636 9.25796 14.9594 -0.921561 -4.54834 -4.46574
50 3 4.89923 1.83536 12.3903 -0.58974 -4.29789 -4.94814
51 3 3.40861 5.43057 11.3606 4.26536 -0.440019 5.06869
52 3 2.22007 6.57432 14.9997 -1.46442 1.02131 0.953817
53 3 11.3319 10.0135 12.929 -1.16941 2.25239 0.193681
54 3 11.3339 1.35697 14.6997 0.190159 6.06596 -12.3143
55 3 5.19118 2.8596 15.2814 3.30591 -10.4427 1.7532
56 3 5.67507 10.8916 9.43169 -0.638479 -10.0062 -0.115921
57 3 7.88638 8.6496 15.2345 -4.16779 7.5703 -2.16416
58 3 0.615069 1.06911 13.7477 -0.35446 4.73186 -0.0391332
59 3 2.2608 3.18101 11.9852 -3.87367 -8.83124 -0.763512
60 3 3.34885 13.3254 11.6609 3.28276 12.3548 3.24473
61 3 11.7382 12.6798 10.8946 4.56524 2.31028 8.78291
62 3 6.11177 10.1615 12.167 -1.73653 0.404497 -3.74898
63 3 6.17359 6.80336 11.4072 8.59521 -4.16783 -0.470594
64 3 12.4679 7.1578 11.4371 4.14293 1.53332 -0.65594
65 3 10.2359 5.2189 14.8965 2.19804 -4.25385 1.86209
66 3 1.19474 11.8264 9.4255 -1.98587 1.09094 -3.64007
67 3 9.53729 3.05835 12.9301 6.99126 -9.13889 -8.19936
68 3 5.41439 0.343693 9.23008 2.5225 3.63576 -8.41067
69 3 7.5353 6.40494 13.7263 -9.33213 3.05421 1.38188
70 3 3.46495 8.32966 10.0715 -1.315 7.97891 9.41663
71 3 0.901035 1.49676 10.5641 -2.49887 -2.06231 -0.0571878
72 3 10.5779 7.23617 13.5499 -8.03058 1.39599 3.59748
73 3 6.95839 2.18008 10.6508 -1.96258 2.23896 -0.876258
74 3 8.14272 10.941 10.8533 0.551918 3.82903 12.5199
75 3 3.50488 0.934859 14.0619 1.21692 -4.6136 1.90132
76 3 8.7324 5.90087 11.6597 1.27037 -12.8895 2.64102
77 3 1.54326 9.47531 13.684 0.635152 15.3029 2.8999
78 3 11.9339 2.25488 12.1827 4.64259 6.85015 3.35686
79 3 0.506117 9.6052 11.4416 -2.51009 0.483717 6.4952
80 3 10.4238 7.18271 9.91851 -9.63141 -1.45734 -2.43989
81 3 8.0769 11.2795 13.4336 14.5611 -7.56561 -9.12744
82 3 10.2882 10.518 15.4367 -3.30203 -9.64046 6.9412
83 3 3.47136 4.60715 13.4711 -3.47184 8.12303 2.89634
84 3 5.36181 12.4377 13.2736 -0.834784 -0.880408 -2.96814
85 3 8.33223 8.79547 12.162 2.89782 -2.6076 -0.951386
86 3 0.493863 4.18624 10.4082 4.5906 2.50464 -12.3678
87 3 8.48396 0.123033 14.9771 1.74242 6.16877 1.90896
88 3 4.02378 7.84725 13.5841 -0.0425899 0.849048 -0.362187
89 3 9.81293 2.49432 10.4137 0.576945 -8.66818 -5.36792
90 3 12.5313 6.43624 14.9273 -0.269119 8.87577 -4.52153
91 3 3.10053 10.1849 11.4353 -1.87936 -1.90653 0.177119
92 3 12.2622 3.45782 14.2721 -1.72867 -5.11577 5.59185
93 3 4.70725 6.10421 15.4233 -3.51748 2.14645 -3.556
94 3 12.2238 11.6016 14.4144 -4.53041 -5.02945 3.81222
95 3 7.62939 2.90059 14.4141 1.59229 -6.2689 7.6068
96 3 3.67214 11.2942 14.5572 -1.79656 16.0703 2.29751
97 3 7.64967 0.248406 12.1174 -0.453063 7.30373 -1.32279
98 3 10.0255 12.79 12.9525 -4.16365 -0.988819 4.96784
ITEM: TIMESTEP
220000
ITEM: NUMBER OF ATOMS
98
ITEM: BOX BOUNDS pp pp pp
-8.8911966683022925e-03 1.3096573196668459e+01
-7.6514174794493073e-03 1.3153235417479360e+01
9.2127394064100372e+00 1.5381309593589961e+01
ITEM: ATOMS id type x y z vx vy vz
1 1 3.38661 12.0944 11.0544 -11.1707 0.912538 -1.68841
2 1 2.0839 3.5186 14.9833 0.5142 1.75095 7.72639
3 1 11.8788 0.365494 10.6972 2.26131 -11.0754 -17.2309
4 1 0.184062 5.92812 11.5004 -8.45239 1.9179 0.95076
5 1 5.94526 6.38752 14.4225 -3.16588 -4.29651 -0.452869
6 1 8.80534 8.47677 9.49857 12.3037 6.08549 -2.14413
7 1 6.53249 12.6212 12.5925 23.3756 -9.78842 -22.1876
8 1 0.924165 -0.0721803 12.8905 15.8557 -23.134 6.85418
9 1 9.3502 11.597 14.581 -0.308534 10.5621 5.51491
10 1 9.7305 8.7875 12.6928 -15.1766 6.47748 2.50661
11 1 2.51676 0.970449 9.72827 -4.56579 9.64855 16.5169
12 1 4.38954 10.0159 12.4152 9.73162 -23.0757 18.4104
13 1 7.5862 3.32503 14.1502 6.76628 -8.59092 -1.41159
14 1 12.1834 3.39796 10.6259 0.195894 -7.26059 -5.9467
15 1 4.80437 2.35962 11.6869 -8.21157 -15.0262 -1.41749
16 1 6.6436 7.76249 11.0607 -0.0710607 1.20814 -3.74602
17 1 6.781 8.96024 13.9774 7.1231 -6.43024 -3.8446
18 1 2.90999 7.74959 11.9949 -3.6633 -1.67521 -6.66885
19 1 1.30293 11.3595 14.9948 -2.24066 2.62337 6.26591
20 1 0.293264 5.71702 14.5538 -11.7338 1.49587 13.6097
21 1 11.7039 10.1719 9.73656 7.55365 -2.10756 11.0662
22 1 13.1122 8.28105 13.6387 9.19271 12.4434 6.22109
23 1 10.7928 6.15579 12.9059 10.2609 -8.90787 -2.64568
24 1 10.0231 1.71549 15.3402 -11.0226 6.10442 17.6315
25 1 3.63868 5.5307 9.8745 -5.03601 14.7489 22.9315
26 1 8.77392 12.3745 11.1083 -3.67453 4.23827 -12.0791
27 1 8.87751 4.84407 9.6595 8.67381 1.12645 -1.97556
28 1 6.32436 4.11185 10.6821 0.0502057 12.1314 9.69154
29 2 3.79741 13.012 13.3393 -5.38675 2.75227 8.57525
30 2 10.4248 3.45694 12.7284 5.61999 -6.87511 -9.09353
31 2 9.11914 1.07929 12.4909 -4.08598 -2.96958 19.9633
32 2 5.96988 11.4661 9.40897 -6.24556 -17.0529 6.59292
33 2 10.8969 7.32931 9.93742 9.88661 -6.44677 14.816
34 2 7.60082 10.4078 11.4294 -5.94829 7.65448 6.04709
35 2 2.79103 8.42186 14.8411 -9.99356 -7.54048 11.1686
36 2 1.50195 2.82707 11.4219 0.285753 0.584628 14.3292
37 2 3.49777 4.56168 12.7478 9.45272 19.904 -2.41877
38 2 12.8511 2.29826 14.3103 -3.78599 7.90962 -4.74292
39 2 7.83096 5.86821 12.6957 -2.9342 10.7332 -10.1594
40 2 1.09321 9.46358 11.4448 -18.0968 8.29074 2.87567
41 2 5.74561 1.14942 14.8086 -11.9261 6.50894 -6.21484
42 2 12.1448 11.3653 13.1713 -5.84331 8.93015 1.97557
43 3 5.74976 1.83513 10.1871 2.07116 4.04406 1.12361
44 3 0.565229 1.74437 11.3434 4.11841 -2.74086 4.28635
45 3 2.54078 10.1699 11.9056 -3.14165 -10.6813 0.977314
46 3 3.3043 4.79757 14.4249 -7.17426 12.7902 7.04721
47 3 10.2925 4.43782 13.9949 -4.85914 4.11577 -3.23233
48 3 8.04245 4.90594 11.4724 5.14034 -0.587761 2.33436
49 3 12.7206 11.9802 14.3801 0.920953 1.76854 -0.553441
50 3 3.7797 0.883281 12.1635 -0.810095 -3.18695 -13.9022
51 3 2.88314 5.65086 11.9115 -5.16997 -7.49473 -1.87845
52 3 1.37605 7.66731 14.43 -1.71697 1.70808 -2.73818
53 3 10.8518 10.4188 13.4549 1.75503 1.07369 -6.48132
54 3 11.8259 1.76424 9.5589 3.9366 -5.14658 -9.21388
55 3 6.34785 2.04774 13.7266 -1.90879 -0.113207 -0.303922
56 3 5.60761 10.0318 15.0851 15.0471 -7.33584 -5.73596
57 3 7.02404 7.45082 9.26403 -7.07274 8.54969 -1.38103
58 3 0.988449 1.51724 14.2083 -2.95963 5.911 1.58542
59 3 2.31653 3.26988 12.768 1.2714 2.91159 1.70274
60 3 2.37858 12.4351 13.6211 0.441896 -6.3515 9.8184
61 3 10.3567 11.5972 10.0037 -0.4556 -0.496041 -1.63107
62 3 7.48232 11.3252 10.1861 6.28251 -0.869621 -6.96317
63 3 6.7484 6.77904 12.6195 -1.73212 1.83393 -3.54341
64 3 12.7904 6.30289 13.0639 -4.43376 9.63267 2.18871
65 3 9.60748 6.62139 9.63939 1.19209 0.440356 2.64908
66 3 1.89141 12.7352 10.5469 1.46643 1.88656 -0.727717
67 3 9.22131 2.7177 12.4921 -10.9717 -4.33897 18.3047
68 3 5.11028 11.9527 10.5455 -1.42408 4.7238 0.800784
69 3 7.66258 5.22374 14.246 -3.97913 -8.24044 -16.3765
70 3 3.19005 7.62914 10.0337 1.91545 5.33618 -16.1273
71 3 0.821784 3.96853 10.7108 -5.62101 7.77985 -9.05946
72 3 11.124 8.41235 14.9557 9.93261 -0.811219 4.62752
73 3 6.4016 12.6774 14.6769 5.9022 -9.01723 2.92618
74 3 8.45768 9.1164 11.1713 11.1193 0.700591 -5.47585
75 3 4.07739 0.819405 14.7036 5.79435 8.99632 10.7637
76 3 9.15655 6.70342 12.8369 3.1391 -15.3285 3.59888
77 3 13.0686 10.0157 12.7746 3.57189 2.88467 6.88963
78 3 11.6566 2.53232 13.1775 0.281786 -4.98499 -3.15056
79 3 0.364194 9.91548 10.143 -6.62338 -11.7189 -3.33573
80 3 10.9785 8.15965 11.4236 2.56742 2.76308 13.369
81 3 7.93058 11.3077 12.5634 0.996855 8.20206 2.40561
82 3 8.67133 9.77465 14.3169 13.1896 -1.62144 2.13627
83 3 4.87177 4.07649 12.3895 -0.644207 4.57801 -2.78824
84 3 4.62027 11.8616 13.0856 7.62779 1.17822 6.69141
85 3 6.25524 9.65433 11.9097 -0.615636 2.04905 9.71759
86 3 2.74656 2.81638 10.4471 11.1765 2.65593 -8.49219
87 3 9.481 0.285738 13.8655 -1.38777 -1.89194 3.08036
88 3 4.12137 8.16666 13.5526 -7.3243 -5.51742 -1.78508
89 3 10.6917 4.08101 11.3426 -4.45655 -4.02397 2.98373
90 3 12.1614 6.46074 10.1942 -6.52091 -3.61856 -4.0521
91 3 1.19498 8.06066 11.8761 5.80974 4.78068 -1.00261
92 3 0.133035 3.73275 14.5974 1.32414 -1.55732 -6.19913
93 3 5.40925 5.36383 9.86182 -2.6818 2.44862 1.2011
94 3 12.5259 12.344 12.0598 6.92113 -0.974343 -0.016841
95 3 8.48884 2.72106 9.38742 -5.70907 -6.47023 -6.77967
96 3 2.5616 9.95676 14.85 -5.8904 5.03036 -13.7149
97 3 7.6373 0.522773 12.0147 -6.14276 -9.20118 -9.29559
98 3 10.0258 0.677837 11.3093 -9.50885 8.37687 -5.57069
ITEM: TIMESTEP
240000
ITEM: NUMBER OF ATOMS
98
ITEM: BOX BOUNDS pp pp pp
-8.8911966683022925e-03 1.3096573196668459e+01
-7.6514174794493073e-03 1.3153235417479360e+01
9.2127394064100372e+00 1.5381309593589961e+01
ITEM: ATOMS id type x y z vx vy vz
1 1 3.20806 12.6813 10.4511 6.91324 1.85544 -12.9198
2 1 0.818565 10.0302 13.6456 8.19454 7.68722 -9.30721
3 1 8.75607 7.43302 13.9187 11.3055 -2.81739 -21.442
4 1 1.15233 5.32353 14.7421 -1.57879 -0.0102004 -10.0606
5 1 4.0162 4.67251 10.1185 -0.131574 -7.33654 8.65289
6 1 10.7661 8.56869 11.5982 0.972937 19.2357 -0.712818
7 1 8.22338 0.393502 9.27487 2.45239 -0.120423 -8.25449
8 1 2.38785 2.34245 9.59176 18.6697 11.2528 -9.29665
9 1 8.39007 10.4421 13.0598 -6.67568 -1.93577 -11.0639
10 1 8.31257 9.14846 10.0175 5.50457 3.35225 -4.69412
11 1 3.14899 2.02367 12.5649 4.26632 -14.4613 -9.56017
12 1 4.06438 10.0849 9.83872 -8.63578 3.58347 6.49652
13 1 7.80625 2.92391 11.8525 7.83606 4.99572 -1.28632
14 1 11.6604 1.85829 11.6732 4.84487 -10.4109 -2.78711
15 1 6.74383 12.739 12.0878 17.8589 16.6885 13.3632
16 1 7.19111 5.16137 10.5146 3.46562 2.52873 6.23471
17 1 3.8229 9.39868 13.0963 -15.2584 20.5489 -9.67326
18 1 5.21893 6.32785 12.2444 -3.68891 -7.42193 10.8211
19 1 6.13066 1.7346 13.3365 -0.630548 1.4476 -2.46662
20 1 3.20091 7.30373 10.5356 2.18329 5.768 -6.23409
21 1 0.845342 0.543116 13.2714 14.1862 -6.22257 -14.954
22 1 10.9744 10.756 15.0607 5.43754 -11.7313 -8.2385
23 1 0.335409 7.12095 10.9313 3.839 22.7583 2.25777
24 1 11.4104 5.28579 13.1465 0.688042 -11.3952 20.4474
25 1 5.94368 7.72107 14.7133 1.44798 5.94268 7.83163
26 1 11.1051 0.0869087 9.83241 -4.82354 -6.08553 2.55476
27 1 11.9411 5.0328 10.0485 5.63525 -0.102563 12.996
28 1 9.1744 2.92226 14.1326 -15.6956 -7.42714 4.13456
29 2 3.77792 12.708 13.7106 2.8601 3.78375 2.7255
30 2 9.82925 3.62286 10.2168 -0.689061 -3.96756 10.5923
31 2 9.18512 0.257857 13.0191 -7.44023 -4.55066 3.86085
32 2 6.16657 11.4344 10.0801 -0.45667 4.84602 4.98917
33 2 11.6832 7.80347 14.6688 1.65197 6.82684 -2.80955
34 2 5.9938 8.78793 11.528 -0.696113 8.84161 5.78749
35 2 2.848 7.42486 13.8731 2.93379 4.8092 21.0996
36 2 1.56396 4.34966 11.7563 3.61318 -16.6914 -4.67212
37 2 3.81916 3.87062 13.7354 -0.25752 -10.9213 18.6626
38 2 12.4994 2.48875 14.6035 1.95089 -11.2722 5.5421
39 2 6.59693 5.01547 13.7167 -1.31801 4.20362 17.2012
40 2 1.08009 9.9842 10.4537 -11.7286 11.9507 -0.819294
41 2 5.62131 2.21891 10.3037 -3.9551 1.45696 -3.97989
42 2 11.8272 11.5752 11.8713 5.30725 -10.8364 -6.37039
43 3 6.57275 1.65855 9.18458 7.69915 10.4521 2.73797
44 3 1.46307 2.82807 11.1364 -3.70519 -9.55511 2.55765
45 3 2.20951 10.9168 10.6671 10.1462 -4.32935 5.17116
46 3 4.38358 2.45001 13.6471 -1.58236 8.27385 4.55227
47 3 8.62114 4.21679 11.1943 -1.34569 3.38825 -6.41648
48 3 6.70678 5.47119 12.1793 -1.40057 0.00527224 -3.93783
49 3 12.7205 13.0316 12.0164 -5.19923 4.92437 6.49341
50 3 3.02076 -0.229931 15.0252 -15.9285 3.5925 -3.4033
51 3 2.97712 3.99264 14.9144 6.22328 -1.90692 1.16191
52 3 2.36881 6.44639 14.8757 2.72006 -10.1606 0.41595
53 3 10.9247 11.0558 13.0983 3.41394 0.164521 -1.2876
54 3 12.1676 1.55672 9.67041 0.790156 -8.02384 5.18179
55 3 4.02855 1.93829 10.6244 7.68805 3.14427 1.87481
56 3 5.90393 10.3489 15.2293 10.0675 4.88079 -4.21003
57 3 4.50177 8.97735 11.1777 -2.02342 1.26702 -3.24515
58 3 0.985636 1.93338 14.1585 12.758 -10.8535 6.25582
59 3 3.18627 4.20505 12.3586 -2.07186 3.608 9.99072
60 3 3.4507 10.9446 13.7547 2.54216 -1.47013 -13.4337
61 3 9.08414 9.10192 11.7573 1.02142 12.5797 6.21093
62 3 6.60692 10.2685 11.2688 6.21635 -6.45812 -3.47382
63 3 4.98025 5.05123 13.8362 -0.451429 -0.214244 1.08749
64 3 11.6334 6.45669 11.8028 -4.4397 5.52338 6.9789
65 3 10.4442 6.87076 14.2707 -0.248941 4.95771 7.99752
66 3 2.82599 0.270318 12.6261 -3.01637 -4.69061 0.73848
67 3 9.37029 2.26788 9.85447 -4.78186 -0.819753 0.886317
68 3 4.78884 11.9804 10.5514 -8.93168 -6.34384 3.75171
69 3 7.35597 3.58088 13.8834 -4.16168 -3.98979 -9.02682
70 3 4.19983 7.98854 14.6127 -8.08935 -3.11271 4.33744
71 3 0.683179 4.67817 12.8927 -1.35859 17.4824 -7.0064
72 3 12.3591 8.49717 13.292 -2.04536 -8.59386 -13.2142
73 3 7.41537 12.2478 10.1636 -1.68009 -1.12637 5.91343
74 3 6.77681 8.08249 10.2845 -7.44212 -6.1492 5.65868
75 3 6.50007 1.56596 11.491 0.358637 8.17691 1.38337
76 3 7.05965 6.27421 14.5517 -10.5946 -5.09508 -2.85548
77 3 -0.0711545 10.5094 11.8094 -6.52 6.70803 -0.9751
78 3 11.4558 2.38336 13.5084 -8.55393 -10.4833 -11.0462
79 3 0.159669 10.414 9.30237 8.7566 -2.21141 4.55595
80 3 10.9606 8.89222 9.55541 1.09491 7.9834 -7.74442
81 3 7.96911 12.2303 13.0065 2.81986 3.34967 -2.23639
82 3 8.3855 9.37475 14.5135 -2.5544 -7.7764 -0.584464
83 3 5.65095 3.79503 10.2102 2.71342 -0.58105 -0.675292
84 3 5.34341 12.7838 13.3567 7.96378 2.48871 -5.4566
85 3 5.96712 7.92036 12.8823 -6.77158 2.26626 9.23089
86 3 1.36054 5.61915 10.7219 -11.4391 -11.623 -11.6046
87 3 9.70725 -0.15822 14.3893 -0.913978 -8.07557 -3.04146
88 3 3.19126 6.80917 12.5316 2.06173 -1.81031 6.26121
89 3 9.77031 4.4571 15.0799 11.8389 12.8016 0.669511
90 3 12.5024 6.68204 15.2401 10.0974 4.40797 7.78634
91 3 1.42487 8.54464 10.6686 -2.34302 -1.50404 -6.90992
92 3 12.6257 4.02059 8.88696 6.49579 -4.34055 -1.18216
93 3 4.54824 6.29297 10.5237 -9.38601 3.86955 2.73821
94 3 11.341 11.588 10.4958 -1.9627 -8.23201 1.22172
95 3 11.0682 3.82093 11.204 -9.87733 9.68835 -13.1891
96 3 1.71274 8.40323 13.7798 -6.2774 1.49255 -0.661577
97 3 8.57183 1.4952 13.2642 9.63148 -0.905398 0.310629
98 3 9.83592 0.327935 11.6571 0.823747 -6.25068 -4.12777
ITEM: TIMESTEP
260000
ITEM: NUMBER OF ATOMS
98
ITEM: BOX BOUNDS pp pp pp
-8.8911966683022925e-03 1.3096573196668459e+01
-7.6514174794493073e-03 1.3153235417479360e+01
9.2127394064100372e+00 1.5381309593589961e+01
ITEM: ATOMS id type x y z vx vy vz
1 1 5.50722 13.1559 14.1406 -6.27595 8.69528 -2.12605
2 1 0.342684 10.3027 13.3695 -4.11222 9.24717 11.1344
3 1 10.5887 12.1625 10.2643 -0.960101 2.6936 -15.5999
4 1 1.3657 6.26202 11.2765 2.05434 -19.9648 5.0218
5 1 3.87993 6.33425 12.5409 -6.33334 16.2155 12.3286
6 1 9.88771 6.73903 12.7818 -9.44889 -19.9848 -4.98402
7 1 8.86621 7.04893 9.60685 2.42386 -10.393 4.23924
8 1 3.54377 3.94114 9.49519 4.04621 3.74437 21.1027
9 1 6.77008 10.9675 13.0375 -19.8234 6.16974 10.4812
10 1 6.39528 8.29979 14.4533 -8.57793 10.5768 -14.9424
11 1 4.2686 0.756186 11.4463 -10.0525 -7.92123 12.0001
12 1 0.779832 0.283366 11.0286 -11.9266 3.29689 18.3917
13 1 7.35693 2.18592 12.5809 10.3585 7.36281 -20.7896
14 1 8.43028 1.29094 15.2995 -6.62546 -1.3352 11.7145
15 1 9.73339 3.65928 13.6028 13.3072 9.56219 -2.3236
16 1 2.5577 8.44277 12.8565 -15.2797 -6.80928 -5.11953
17 1 2.81275 10.9654 9.51903 -1.84012 -7.62649 22.748
18 1 4.75093 9.73285 11.1215 8.91899 6.15201 1.76292
19 1 8.21762 10.4284 9.61178 -0.913921 10.3747 -1.23191
20 1 11.8133 8.40143 11.3677 10.1186 1.48804 -4.65918
21 1 2.2935 1.39414 13.9356 18.6594 -5.93351 12.1292
22 1 12.5221 3.66773 12.3883 35.7845 4.37087 15.4286
23 1 10.7345 8.73903 15.2443 -1.74643 -15.6799 13.2691
24 1 11.2375 6.11111 10.3857 -11.1143 -8.65954 -6.27909
25 1 6.92943 5.78851 11.6511 -3.70967 5.09087 8.61983
26 1 10.7341 1.43534 11.0716 -3.73384 7.46633 0.476723
27 1 1.09858 6.5344 14.6835 13.1755 -5.86057 -4.80277
28 1 12.7834 3.35785 9.29903 27.8171 0.466374 19.0195
29 2 3.13651 11.5358 12.7325 3.42781 -4.21421 -4.24478
30 2 10.1103 3.83091 10.582 5.10241 9.60894 -13.8301
31 2 8.38864 13.1031 12.1903 -6.494 13.6444 -5.12231
32 2 5.90004 11.671 9.88699 -15.3109 1.34167 8.74739
33 2 11.9356 6.09115 13.879 3.59811 -3.20587 6.51155
34 2 6.67364 8.2556 11.9074 -7.51261 -2.01958 4.86136
35 2 3.25804 7.75769 9.60245 -3.13604 -12.0249 -0.439184
36 2 1.45907 2.94351 11.079 9.76072 3.30885 -7.16313
37 2 4.63587 3.6813 12.7507 1.53541 9.02311 0.542669
38 2 12.1589 0.757416 14.4953 4.89712 4.78927 -7.26045
39 2 7.03182 5.18821 14.4706 -2.02411 14.8266 -13.0643
40 2 12.8008 10.645 10.4223 -13.0187 -2.5804 13.5794
41 2 6.17557 2.57092 9.58214 3.97299 2.01661 5.91487
42 2 10.7517 11.5428 13.5646 -10.9988 -3.32988 0.187896
43 3 6.93948 2.01103 14.6352 -6.74082 2.63797 2.04205
44 3 2.05121 1.86226 12.1062 4.97507 -6.31954 -5.05563
45 3 12.2317 12.0973 10.9198 -10.2336 -2.76433 -14.9203
46 3 4.79883 2.06157 12.6733 9.10849 -11.1926 -13.8106
47 3 9.21968 5.13898 10.5547 2.43696 -14.2521 -3.75935
48 3 5.30585 7.42119 12.1768 4.34231 2.80449 5.50548
49 3 11.7297 12.872 13.3323 -2.46806 6.90892 -4.17165
50 3 3.03286 12.7491 13.6368 -0.175033 5.77446 -1.3062
51 3 3.67847 4.06174 13.8099 -3.03201 5.30227 1.23657
52 3 2.90573 6.38524 10.116 -1.84907 1.23026 2.80209
53 3 9.74105 11.7055 14.7698 2.10326 10.6784 4.10314
54 3 1.68286 2.67256 9.68985 1.60123 -5.70111 -11.4668
55 3 4.8011 2.20471 9.84968 0.150004 4.3195 -1.43891
56 3 4.61809 10.8756 9.61632 -2.34777 -1.1689 -2.90707
57 3 6.39426 8.74123 10.5749 0.187707 -3.90926 -12.1708
58 3 11.1425 0.559597 9.35652 2.94122 2.90783 2.2232
59 3 4.2305 4.41569 11.4923 10.6077 0.868799 -7.5645
60 3 2.41471 10.3749 13.3109 -9.03122 -15.064 4.54524
61 3 8.8238 8.85003 9.28271 -4.34909 10.8603 -8.03287
62 3 5.48334 12.9229 10.5412 -5.51989 1.6424 6.07609
63 3 5.99039 4.91919 13.2521 -2.68345 -5.06234 1.33988
64 3 12.9967 6.77604 10.2548 -2.26003 -13.3288 1.17827
65 3 10.6737 6.88146 14.6908 0.552192 -8.40566 7.65954
66 3 2.39391 12.0233 11.428 -2.5086 -1.7724 -2.12071
67 3 10.2519 2.9252 11.7597 -0.290804 3.66959 2.30634
68 3 6.45995 11.8875 14.713 4.59568 5.54099 -0.805952
69 3 8.20587 4.43728 13.7001 10.0215 -6.09152 2.21672
70 3 4.61265 7.70264 14.7677 1.00927 -13.2188 0.346509
71 3 13.0326 2.14542 11.1596 -2.02335 10.5469 -3.98697
72 3 12.4021 7.29735 13.105 -9.94937 -5.4973 -11.7747
73 3 7.12421 11.1348 10.7984 -5.66136 5.98472 -6.90334
74 3 7.95024 7.35032 12.0894 3.22498 2.51995 10.1125
75 3 6.94847 2.77035 10.9847 -4.12134 -8.65315 -10.7914
76 3 7.42317 6.59604 14.868 -6.84972 1.13981 2.12885
77 3 0.397773 9.77548 11.7215 7.17152 0.121732 -3.65381
78 3 12.2433 2.43676 13.8497 -8.35877 5.85904 -7.32964
79 3 11.5243 9.85246 10.0937 0.536203 5.00175 4.19949
80 3 13.1089 5.24468 14.3414 10.7973 2.61509 3.81722
81 3 7.0116 12.7839 12.7655 5.73705 -3.58674 13.046
82 3 10.4229 7.38876 11.0462 -1.8029 2.3924 2.39821
83 3 6.08658 4.49137 9.52614 10.7393 -6.55762 1.24463
84 3 4.5464 10.9859 12.4742 -3.38034 2.89447 1.30518
85 3 6.36976 9.29346 13.0102 6.64262 5.12769 -3.04257
86 3 1.14721 4.34844 11.363 6.96601 -9.01876 -1.11961
87 3 8.74844 1.2193 13.2584 5.5199 1.29592 -6.87633
88 3 1.99226 8.14815 14.7517 10.2395 2.81739 -2.19862
89 3 9.54158 2.84072 9.45066 -0.552949 -3.66421 0.538784
90 3 10.9976 5.02154 13.2992 5.02937 -4.55416 0.147202
91 3 0.842104 10.8415 9.39474 -7.91453 4.69569 5.60454
92 3 0.441225 0.358551 15.0234 0.744994 8.76196 11.992
93 3 2.27271 6.62505 12.5907 -1.24815 2.46103 1.9548
94 3 11.3906 10.1402 13.7385 -0.526392 4.25867 3.32213
95 3 11.768 4.26857 10.4872 -3.74676 6.48938 3.25996
96 3 3.01984 8.84118 10.7569 -3.68955 -3.50269 1.04247
97 3 8.64785 0.5823 10.829 -5.30421 4.2906 3.76143
98 3 9.65182 12.0691 12.2037 -5.77122 -6.95204 -3.88419
ITEM: TIMESTEP
280000
ITEM: NUMBER OF ATOMS
98
ITEM: BOX BOUNDS pp pp pp
-8.8911966683022925e-03 1.3096573196668459e+01
-7.6514174794493073e-03 1.3153235417479360e+01
9.2127394064100372e+00 1.5381309593589961e+01
ITEM: ATOMS id type x y z vx vy vz
1 1 6.77375 5.3161 10.86 1.70756 8.93252 1.27932
2 1 11.8094 13.3406 13.0908 -6.40478 3.48783 2.42667
3 1 8.97876 10.25 10.7769 -4.99024 -10.1646 5.46439
4 1 2.55539 5.56437 11.0721 4.46899 -11.1224 23.2471
5 1 10.9386 12.1362 9.53752 -11.7018 -1.8833 2.07514
6 1 10.2562 4.95054 15.1755 -2.68263 -22.9869 -9.10969
7 1 4.13471 6.81959 13.9033 -4.98271 1.844 8.7753
8 1 2.05682 3.53134 14.4188 16.2192 -1.62046 -2.87277
9 1 6.87426 1.57959 12.295 -13.0908 5.76464 10.059
10 1 4.33206 8.1212 11.4721 -7.53174 -6.77781 -10.4758
11 1 0.840738 0.306473 11.3838 -15.7506 0.401805 -13.9052
12 1 3.61084 0.758244 10.7309 16.0595 -5.62038 -5.75692
13 1 6.47487 8.12928 9.48564 14.8647 -5.55981 -5.26554
14 1 8.17032 12.7588 14.6298 -11.0948 6.92483 -4.08747
15 1 9.13057 2.88729 14.5926 -1.62198 -0.627894 -13.7517
16 1 1.37678 7.97182 12.1123 -1.81257 16.6496 1.79679
17 1 2.09825 10.8035 10.0237 -5.93025 -14.066 -4.97534
18 1 4.82525 9.9477 14.0599 -10.7399 -1.79055 5.91988
19 1 9.67736 7.95208 14.9139 -5.50856 -14.7672 4.52192
20 1 13.0789 8.30096 15.0344 0.910512 15.2148 7.43443
21 1 4.02866 -0.14541 14.567 7.06302 -1.66476 -26.6947
22 1 12.4743 3.17159 12.7406 13.0046 -3.92714 0.562156
23 1 7.62443 11.3625 12.6409 -9.20548 2.3554 -4.77923
24 1 9.21785 7.05927 11.4041 -3.51996 -2.10333 9.10706
25 1 4.61991 3.97231 9.54797 14.6908 4.52305 -0.842816
26 1 11.5701 1.84904 9.95397 -0.499373 -6.64365 -3.01182
27 1 0.692443 10.5478 13.8752 -10.4267 5.62233 7.51106
28 1 12.3776 6.91082 10.5902 -19.7261 -8.02329 3.5469
29 2 3.46298 11.5857 12.4193 -5.18905 3.21654 0.734958
30 2 9.36223 3.72306 11.6018 16.6816 0.451875 -6.1122
31 2 9.20138 1.0398 11.346 10.3128 3.60656 3.72966
32 2 6.15388 11.1923 9.86215 -5.42506 -12.9617 9.35178
33 2 12.0974 5.95539 12.937 -11.0446 6.91411 10.3325
34 2 6.67283 7.96828 12.6159 -12.0206 5.34804 -16.3055
35 2 2.42723 8.09389 9.57094 5.71867 8.12365 9.20591
36 2 1.30953 2.78802 11.3169 0.00189123 -3.36022 -0.463273
37 2 4.95834 4.15148 12.6639 1.9666 12.4989 6.2283
38 2 0.621175 0.94483 14.6731 8.08826 -17.8008 7.1253
39 2 7.43131 5.34089 13.8702 -0.275159 -12.9241 -5.10028
40 2 12.5458 10.0941 10.7423 -2.03735 13.6548 1.32917
41 2 6.26823 1.80132 9.75069 0.792116 -11.2387 10.5603
42 2 10.4329 10.3625 13.7667 -2.69778 4.57719 -3.14703
43 3 7.44736 1.511 14.737 7.92477 -1.50999 -2.65561
44 3 2.41805 1.81427 11.5452 2.37797 6.16535 0.483395
45 3 11.8033 11.3245 10.7936 -9.23066 0.874723 -6.82882
46 3 5.40747 2.7104 12.8076 -4.31726 -5.0809 -8.09311
47 3 8.63268 5.00023 11.2911 -7.20101 14.0265 -6.59997
48 3 5.52675 7.89731 13.6929 4.93412 -6.39008 6.21221
49 3 0.364338 -0.0545869 13.0639 6.62508 1.89072 1.13418
50 3 4.56542 12.5974 12.6975 -7.18887 0.735371 9.58976
51 3 4.0724 4.70875 13.9262 -9.20884 -2.3378 10.2082
52 3 1.10187 7.15042 10.1763 -9.07762 11.4181 -9.73792
53 3 9.57645 10.8558 15.1417 -7.62286 -1.21844 5.23909
54 3 1.69743 3.55905 9.89281 1.24996 -5.17889 6.01623
55 3 4.63284 1.85331 9.2817 1.97073 -0.758126 -5.44681
56 3 5.54735 9.74162 9.43667 5.35363 4.22795 13.2116
57 3 7.11101 9.56732 12.8425 -3.11531 4.53311 -6.95899
58 3 0.28057 13.1146 9.68157 0.454218 -2.29661 2.36475
59 3 4.34499 4.83052 11.331 1.82982 -4.5754 3.58586
60 3 2.55917 11.5263 13.8221 6.2525 1.67027 -7.16327
61 3 10.6649 8.81042 13.689 8.47396 1.36277 -2.09781
62 3 4.5754 12.0802 9.81063 -4.21213 -1.1177 -6.44376
63 3 6.35517 5.19084 12.759 -0.135476 -0.535708 -2.95542
64 3 10.6154 6.72392 9.64949 -0.572623 2.78924 -1.44127
65 3 0.234876 7.22151 13.5564 2.45316 10.0712 6.05915
66 3 2.60067 12.2099 11.272 -4.57448 -2.91406 3.4513
67 3 8.37502 2.48495 11.3216 3.42636 1.20316 -3.13821
68 3 6.74514 11.9188 14.6539 4.69313 0.3554 1.31913
69 3 8.74739 4.59621 14.0814 2.47274 -14.2637 -3.29177
70 3 3.49089 7.04902 9.41628 1.5339 -4.34742 -8.04315
71 3 12.9497 2.13156 11.1151 2.09168 1.03573 6.64755
72 3 11.9173 5.18296 14.1964 -3.9426 -5.96436 -4.01822
73 3 7.10562 11.5359 10.8532 2.56857 -2.09482 -1.72225
74 3 6.07518 7.84583 11.2823 10.4925 10.8832 -2.6829
75 3 6.57131 0.763921 10.7925 2.907 2.6683 -6.02764
76 3 6.46045 5.78029 15.3294 8.54312 -7.29075 3.0421
77 3 0.512003 9.67338 12.0254 0.0391128 -6.09589 8.88809
78 3 12.3215 1.85918 14.4807 -4.53608 0.234748 -8.52901
79 3 12.1016 8.64818 10.1783 0.259925 4.15248 -2.1058
80 3 10.6944 6.4922 12.5797 -5.403 -3.537 6.36009
81 3 8.37214 13.4159 12.5626 -6.02966 11.5198 -2.96245
82 3 8.44365 8.32306 10.2922 -2.41927 -0.750327 0.47434
83 3 6.18153 3.48338 10.158 -5.87794 -3.0267 8.50525
84 3 4.11041 10.0283 12.3733 -3.96652 2.71004 2.31233
85 3 7.83298 6.97005 13.2633 -11.808 -3.24139 2.75091
86 3 1.21717 3.59863 12.6554 10.5517 2.80017 1.1483
87 3 10.6487 0.506628 11.8271 -1.11933 -2.16378 1.73922
88 3 1.99731 8.67477 14.2687 0.868051 4.36045 -2.9592
89 3 10.2559 3.26087 10.0468 2.10655 2.84444 -10.1593
90 3 12.8591 5.41459 11.674 5.563 3.73615 -4.80284
91 3 0.381844 10.0557 9.39396 7.20445 -7.08202 -8.90908
92 3 1.86285 1.52992 14.3939 3.79754 -1.74832 -3.60193
93 3 3.16669 6.89942 12.2797 -2.66098 -5.67436 6.11829
94 3 11.6215 11.5233 13.7493 2.31512 5.70674 -1.82242
95 3 10.387 3.16077 12.6213 6.39705 2.31695 -0.638945
96 3 2.93813 9.21994 10.4688 4.16243 8.81038 9.83707
97 3 9.71473 0.583775 9.79634 -7.43494 -6.53584 6.77233
98 3 9.54709 10.8363 12.4724 8.72514 -0.0222539 -0.35178
ITEM: TIMESTEP
300000
ITEM: NUMBER OF ATOMS
98
ITEM: BOX BOUNDS pp pp pp
-8.8911966683022925e-03 1.3096573196668459e+01
-7.6514174794493073e-03 1.3153235417479360e+01
9.2127394064100372e+00 1.5381309593589961e+01
ITEM: ATOMS id type x y z vx vy vz
1 1 3.92648 1.27869 10.9396 -11.7767 -3.58806 -2.87684
2 1 11.6891 12.5287 13.0567 11.2414 15.275 -4.1626
3 1 8.13861 9.41172 10.3218 -0.177525 -5.59253 6.96029
4 1 3.71576 5.52375 11.7118 -7.31292 8.94309 18.6754
5 1 10.8083 12.8825 9.66128 -2.58787 -8.42152 12.6691
6 1 1.31639 4.47474 13.2709 2.10974 -4.99648 15.1442
7 1 3.23401 4.99495 14.6526 -4.48009 -6.18964 -12.7049
8 1 12.4224 2.87868 11.9193 -1.62571 -23.6979 1.71857
9 1 9.68588 2.13653 14.6035 -20.096 12.8202 -6.70792
10 1 6.16512 9.90845 13.0578 3.3404 -0.282702 7.38043
11 1 0.943529 0.0136377 10.2916 1.00093 -13.5885 14.7027
12 1 1.72738 0.831067 13.6396 24.3315 10.0797 2.86249
13 1 5.76314 7.19775 9.18221 2.05588 -12.6752 2.89205
14 1 7.32622 12.3605 10.1454 -1.22404 -1.44661 6.11282
15 1 10.239 4.92252 13.5009 1.55786 2.16512 4.31005
16 1 1.63866 7.59252 12.8364 11.48 -7.15047 -19.4764
17 1 2.21015 10.4266 13.3457 -22.7713 -9.17363 10.7627
18 1 2.72871 9.64012 10.2924 -0.4926 -11.3561 -3.14188
19 1 8.83115 6.57933 10.5845 10.1567 1.62899 -4.44601
20 1 11.9936 9.51231 13.6486 -1.43641 5.82715 -10.5919
21 1 7.01164 12.6925 12.8429 4.22657 2.00167 -9.07712
22 1 -0.35097 4.7204 9.16642 -15.1281 9.87382 -16.2851
23 1 10.781 9.55379 10.1636 -4.85236 12.0387 9.74301
24 1 7.54394 3.25629 12.8841 -10.688 0.123212 -7.81744
25 1 5.42688 4.10497 10.0944 5.95123 2.23201 -1.99902
26 1 8.88181 7.93931 13.0432 -0.720027 -15.2275 -22.1158
27 1 5.03789 12.6247 14.6051 -14.1697 -20.2653 -1.13489
28 1 13.1821 7.55817 10.3241 3.48003 -4.87272 -4.06092
29 2 3.45174 12.5495 12.5899 -3.79134 -2.91029 9.60583
30 2 9.93787 3.97548 10.6431 6.89492 -9.00266 11.3369
31 2 9.28334 1.27397 11.5084 4.493 -0.581067 -8.25864
32 2 5.62528 10.1074 10.0742 -10.7568 -2.30128 11.3417
33 2 12.1768 6.31218 12.2884 7.49972 -0.948725 13.5674
34 2 6.30299 6.8134 12.55 1.66444 -5.65985 8.01602
35 2 2.27456 7.35461 9.46459 -12.7262 -3.54244 -3.26587
36 2 2.14901 3.09612 10.0278 1.51934 0.672043 2.32641
37 2 4.74831 3.15277 13.4393 9.62891 -3.68146 11.9567
38 2 12.5834 1.23793 14.5846 -11.7977 14.1833 0.922336
39 2 7.8949 5.46828 14.6163 -3.78138 2.65761 9.3005
40 2 0.255209 10.9463 11.4413 -3.50305 10.6978 0.782609
41 2 6.28297 1.45772 15.42 -3.94106 0.520784 3.66651
42 2 9.27808 10.7482 14.3657 -10.0881 4.1344 3.65272
43 3 7.14275 0.380123 14.7535 -5.64374 5.45263 -2.34435
44 3 2.24577 1.66658 9.45974 4.75954 13.2315 -0.31641
45 3 0.0964241 12.4482 11.7303 2.63098 -0.536506 3.37922
46 3 3.34737 3.13 12.7117 0.0235076 2.21534 6.30762
47 3 10.7682 4.27083 9.25908 -16.8699 -10.4295 -4.00051
48 3 5.48979 7.59611 13.6756 3.67331 0.348655 -1.21687
49 3 0.048991 2.00803 13.4662 2.62069 3.61888 -5.11638
50 3 5.01732 12.9733 12.757 4.85525 -7.48109 1.74559
51 3 4.98209 4.41515 14.385 4.68796 -5.96823 -2.46274
52 3 0.949965 6.366 15.22 0.383586 7.61009 -0.769316
53 3 8.83817 11.1811 9.66139 1.75887 -0.594791 0.332786
54 3 1.50346 3.9858 14.8535 -10.1931 9.43957 -16.9606
55 3 5.09191 1.88414 14.4079 -7.01948 -0.235116 -3.22674
56 3 6.55866 8.80208 9.57408 -2.40011 1.11618 3.90439
57 3 7.35973 7.954 12.0814 -0.918454 -4.15159 0.899627
58 3 12.5795 1.81386 9.8109 -8.03785 -3.83872 5.6977
59 3 5.70728 2.98898 12.2155 9.50582 2.5085 -15.2907
60 3 2.997 12.5171 14.203 -1.88812 3.42227 -5.84858
61 3 9.45002 9.17984 14.226 -4.81434 -1.91894 4.60672
62 3 4.51159 9.3395 10.7696 6.97348 -2.30557 -12.9357
63 3 8.68077 4.16191 14.2058 3.08012 7.64909 1.7421
64 3 12.0201 8.6697 15.0742 1.4866 -1.1 3.61737
65 3 12.8298 7.69611 12.3262 14.7646 -11.5515 -2.75658
66 3 2.61043 0.553752 11.9412 -2.82102 4.29769 6.84938
67 3 9.53158 2.56207 10.5165 1.53785 -0.620852 4.5971
68 3 5.45472 10.8725 14.9569 2.37898 -1.16241 4.11108
69 3 9.00268 6.46969 14.9056 -1.25505 -6.87755 -4.78147
70 3 3.18354 6.17422 9.80622 2.94593 3.95296 4.30909
71 3 1.25302 3.28933 11.3961 3.85621 2.44094 2.16566
72 3 12.5596 5.04115 13.2827 0.230282 3.08457 7.99345
73 3 6.38795 10.9984 11.0753 1.36434 3.40524 -0.61063
74 3 5.32024 6.3768 11.4822 0.452518 -1.90751 2.24466
75 3 5.30487 0.366927 10.0761 0.0285618 -3.48737 7.71153
76 3 6.77777 5.68451 9.46465 -4.71411 -0.318325 -2.45701
77 3 0.664193 10.1246 12.6834 5.82771 7.32911 -13.892
78 3 0.0935479 12.9571 14.7928 0.55485 13.1641 1.32031
79 3 11.7427 10.425 11.5837 -3.954 1.08294 7.68492
80 3 10.7002 6.80769 12.6359 -7.3574 0.807064 0.865956
81 3 9.14386 1.95298 12.8975 4.25948 1.04562 -1.75623
82 3 9.44969 8.72508 11.1402 4.98349 1.17424 -4.66269
83 3 6.92733 2.77596 9.82661 -1.3785 3.41589 -4.11345
84 3 3.15693 11.2091 12.1075 -4.84384 6.40232 -2.52757
85 3 7.11798 5.77284 12.9385 1.75375 -8.30518 11.9927
86 3 3.49355 3.43156 10.3242 -2.45091 1.67594 -2.06832
87 3 10.5116 0.472051 11.3912 -4.19907 -9.14987 -0.518928
88 3 2.4269 8.42879 14.4948 4.37259 -0.735498 -10.766
89 3 10.9171 3.79762 11.8363 6.94131 -0.990625 -2.15387
90 3 12.5706 5.90723 10.8524 -9.67688 -6.23721 -1.59515
91 3 1.23485 10.7177 10.2454 8.13733 -0.0115642 -0.334061
92 3 11.0113 0.818859 14.3133 5.04192 -2.91692 3.49925
93 3 2.45853 6.00316 12.9693 13.9789 -2.96989 -0.873077
94 3 10.6532 11.4287 14.1354 -6.03144 10.8081 1.78624
95 3 8.83041 4.86401 11.348 -1.99074 -2.59087 1.16756
96 3 1.94976 8.07151 10.8512 8.98898 -3.54328 -7.1585
97 3 7.85925 0.470705 11.357 -3.56483 1.45419 -4.09147
98 3 7.9051 10.9973 13.3239 0.895809 1.70852 6.14688
ITEM: TIMESTEP
320000
ITEM: NUMBER OF ATOMS
98
ITEM: BOX BOUNDS pp pp pp
-8.8911966683022925e-03 1.3096573196668459e+01
-7.6514174794493073e-03 1.3153235417479360e+01
9.2127394064100372e+00 1.5381309593589961e+01
ITEM: ATOMS id type x y z vx vy vz
1 1 6.87331 11.1921 11.2984 12.7238 14.0365 -6.56696
2 1 9.96465 0.161968 12.2766 4.42144 4.45581 -0.509326
3 1 1.8028 9.70213 11.7831 16.6707 -9.74954 4.25269
4 1 7.92542 6.41791 9.44398 7.11052 -13.0264 8.77034
5 1 8.6949 2.32103 14.8094 -7.49168 -10.4977 -1.90776
6 1 1.01901 7.57963 10.2659 -0.738467 5.15279 -0.157679
7 1 4.46006 3.59108 10.6482 -17.1543 11.8766 10.0196
8 1 0.823323 4.31653 14.4846 3.04925 4.29613 5.68845
9 1 6.34436 4.14659 13.9433 -12.4404 21.0784 8.38005
10 1 1.86701 1.97945 9.75321 8.91539 4.53258 12.8202
11 1 11.3756 13.0654 9.61354 -9.26365 7.3882 0.129411
12 1 4.75075 12.792 11.8143 -25.3743 6.83067 8.10648
13 1 9.74011 8.68626 12.9563 -6.0606 -2.88327 3.30958
14 1 8.00296 12.9626 9.42874 -19.0027 -7.03688 -20.6653
15 1 10.9338 2.62068 13.2973 -6.5628 7.84621 -6.3514
16 1 4.73537 7.57605 14.2488 9.01627 -4.42668 -5.32382
17 1 2.89483 12.7456 13.8622 1.61218 -2.63747 -2.74692
18 1 12.1021 8.16496 12.4315 6.23078 -4.98509 7.57995
19 1 12.5154 5.14504 11.4979 8.87778 -17.2853 6.71257
20 1 1.8391 7.43253 13.2877 -1.05709 -9.33991 -21.4279
21 1 5.42066 11.5074 14.6539 -10.9959 -0.12844 -7.96983
22 1 4.71331 6.37525 11.5241 -5.58081 1.8847 -3.09471
23 1 9.39845 8.7795 9.74931 -2.0437 2.96533 2.3727
24 1 9.18213 4.66201 11.4704 7.98711 -0.756382 9.32858
25 1 4.01151 2.29405 12.5971 -0.73024 4.4081 -0.946242
26 1 5.41548 9.57323 12.6087 -3.54472 0.0616666 0.815938
27 1 0.546739 10.9972 9.34663 3.04374 -2.07301 0.189253
28 1 11.4561 10.6618 14.0234 -16.0059 -6.69875 -1.21768
29 2 1.77148 12.555 11.1941 -2.21682 4.1465 4.96892
30 2 11.303 2.70652 10.0852 -14.8846 -2.08057 -3.79335
31 2 8.00739 1.54444 11.7803 11.4812 2.60025 -7.36826
32 2 6.14239 8.48148 9.99471 -4.02335 -15.7182 -1.93938
33 2 12.322 6.68238 14.8734 10.6967 6.15862 8.22583
34 2 7.12237 6.78036 12.5882 -9.0116 7.05574 -16.5116
35 2 2.86441 9.66946 14.7927 9.11783 -5.11988 -2.16008
36 2 1.97753 4.80748 11.3119 15.1816 14.2554 10.7995
37 2 3.60852 4.68942 14.5016 11.2227 -6.99079 10.118
38 2 13.0115 0.520959 13.2713 -16.7416 6.16593 1.89887
39 2 9.55701 4.92115 14.4609 -6.698 6.5568 9.60357
40 2 11.31 10.2973 10.9842 -1.39061 -4.40849 -2.20114
41 2 5.25996 1.1876 9.21771 -12.3446 0.519595 -2.14772
42 2 8.64549 11.1868 14.112 3.22897 -17.484 -5.49035
43 3 6.55506 1.64315 15.083 0.740421 1.85549 -2.45798
44 3 2.48573 3.35065 11.3608 5.31962 -3.65159 -8.1359
45 3 11.9014 10.3036 12.3893 3.59727 8.15229 5.21681
46 3 2.78381 3.42651 14.5575 -3.67574 5.85753 -0.8572
47 3 10.3581 3.01502 14.8133 -0.607723 -4.83229 -3.26751
48 3 5.58526 7.57884 12.6426 2.7013 -0.252612 0.531751
49 3 1.04724 1.3802 14.002 2.46549 -2.86596 -0.641958
50 3 5.72697 11.6596 12.7567 -4.65469 -8.78264 -3.07065
51 3 4.87292 4.52981 9.24834 -1.61411 7.02581 -6.62799
52 3 2.68774 8.94536 10.0094 1.80549 -9.72579 0.448532
53 3 9.55568 9.98686 14.4857 6.14772 -0.263133 -4.17223
54 3 0.781161 4.79923 10.3442 -0.826934 -2.32575 3.14902
55 3 4.28219 0.915389 14.0281 -7.75536 -3.12191 -5.90448
56 3 5.38201 7.16025 10.0203 5.05007 0.644344 8.1398
57 3 8.3359 7.72453 12.8228 -4.31541 7.36169 -4.93374
58 3 12.6842 12.4985 14.5075 2.11299 -4.03413 1.30485
59 3 4.66483 4.25581 12.8071 -4.37416 -3.41362 -0.0581414
60 3 1.42008 11.1312 10.859 -2.67971 3.41234 -9.49038
61 3 9.64889 12.389 14.4206 7.85273 0.0812923 -5.33291
62 3 5.92174 9.68844 10.9194 5.7418 8.03723 7.34844
63 3 9.69954 5.36916 13.0844 -3.80303 -5.22583 8.51814
64 3 1.31907 10.0664 14.1378 0.879084 4.71472 12.0605
65 3 0.638071 7.30524 14.8519 -7.9458 0.376353 -1.12307
66 3 2.97882 12.5882 12.1174 -0.395456 -14.8955 7.53042
67 3 8.60691 0.258812 10.9753 0.0132398 1.30454 7.73416
68 3 5.60153 9.16116 14.6937 -0.0415578 7.82036 7.35421
69 3 9.49818 5.93584 9.42982 -2.43936 3.13545 -8.56922
70 3 3.05687 5.89008 11.2455 1.29625 14.0347 -2.11218
71 3 12.7042 2.50798 9.55811 -5.36511 2.19391 -0.807677
72 3 12.251 5.26415 14.3852 -2.20571 1.07511 4.20603
73 3 7.71615 8.08002 9.99371 9.14673 -10.1271 3.15754
74 3 7.06772 5.94375 11.3536 -8.42812 -0.0443298 -11.2095
75 3 5.25425 12.8028 9.96911 -7.29321 -2.78099 -3.30564
76 3 8.1978 4.09561 14.6179 -0.0568609 -3.98919 -7.69929
77 3 10.6458 11.6486 10.6694 -5.14266 -1.09199 -3.98821
78 3 0.469495 0.0611421 11.9408 2.09677 -0.765638 7.42161
79 3 12.125 9.78086 9.8321 -2.81679 -2.23848 0.745953
80 3 12.067 7.05517 10.346 2.96847 0.063782 11.3157
81 3 8.49286 2.82551 10.8468 5.32852 3.74236 -14.0549
82 3 0.913438 8.2461 11.8727 6.57204 -3.75318 -2.7927
83 3 4.49601 1.8125 10.333 0.407773 2.54853 0.878692
84 3 1.92171 0.112944 9.95671 8.13337 -0.223093 -4.43952
85 3 6.75317 5.94505 14.0195 -2.01875 -2.74969 4.93517
86 3 1.11183 5.12294 12.7278 7.50646 -4.06827 2.25029
87 3 8.89233 1.61082 12.9642 -3.40596 1.75127 -7.1239
88 3 3.26249 8.81647 13.5536 -2.83004 6.91651 5.49332
89 3 10.7802 1.34223 10.6284 -7.07727 -6.89538 6.13159
90 3 11.4033 7.55468 14.0199 0.336785 2.59872 0.618839
91 3 10.2514 8.94196 11.2472 2.69168 -0.643263 2.67522
92 3 11.4727 1.04719 13.2166 7.42117 -4.11418 0.0517435
93 3 3.37711 6.16568 14.2653 5.2314 -2.08392 4.23023
94 3 7.58492 10.9465 15.2591 -3.88958 3.86958 0.171087
95 3 11.3451 3.92122 11.1329 -5.33446 8.71705 -3.44938
96 3 3.62891 11.1203 14.8551 14.0494 5.36741 -5.82718
97 3 6.63469 1.73713 12.1519 -4.05317 -8.42681 2.66898
98 3 8.17136 11.3245 12.6657 10.3308 4.85588 -0.237857
ITEM: TIMESTEP
340000
ITEM: NUMBER OF ATOMS
98
ITEM: BOX BOUNDS pp pp pp
-8.8911966683022925e-03 1.3096573196668459e+01
-7.6514174794493073e-03 1.3153235417479360e+01
9.2127394064100372e+00 1.5381309593589961e+01
ITEM: ATOMS id type x y z vx vy vz
1 1 6.6062 12.2652 13.167 5.60239 -12.2649 -24.9976
2 1 1.51003 1.00025 9.80448 7.12291 0.659709 -7.41706
3 1 12.521 5.86882 14.2406 13.6511 -1.26532 -5.88742
4 1 7.43519 1.18937 15.2912 -17.5543 -11.6598 2.64777
5 1 10.519 0.804921 9.63585 -15.2715 2.94474 -14.9124
6 1 10.9848 4.16292 12.5925 -18.2375 8.4739 3.16041
7 1 3.36237 3.23053 11.4303 11.0647 0.962525 17.6263
8 1 1.5371 3.77853 14.4731 -1.81646 7.21135 3.9372
9 1 6.59366 3.70979 10.8158 3.08441 4.32261 2.1874
10 1 0.0170016 2.54943 11.9725 20.6832 -9.68123 -17.0217
11 1 0.187102 11.7604 14.6425 -14.5315 -1.01592 -3.8242
12 1 4.24549 1.1025 13.8068 6.00768 -3.14791 2.62103
13 1 8.94093 9.1572 9.5376 -7.37518 14.107 -20.5387
14 1 8.15493 12.4476 10.8276 -12.1436 12.2496 -1.29059
15 1 13.0095 6.43461 10.4797 3.54108 16.2407 -7.6361
16 1 3.80312 6.7481 13.8595 5.37241 1.72508 2.13003
17 1 4.84013 11.7009 9.94226 -11.2764 2.52851 -14.2707
18 1 10.6984 6.78889 14.8213 23.8575 13.0829 7.38958
19 1 7.87896 6.19911 11.8894 7.34404 -10.1783 -0.541216
20 1 7.02461 3.82479 13.7153 -10.2101 -8.06709 12.2646
21 1 2.92027 8.0902 11.3991 3.3965 2.13768 -7.8475
22 1 5.68466 9.50791 14.6183 -9.40077 -1.00111 8.62435
23 1 9.1992 9.2293 12.6314 -8.71423 -3.79762 8.45102
24 1 5.07879 6.62972 10.0357 -9.68087 6.53506 -17.6412
25 1 11.3819 12.8806 12.8536 16.3279 -0.592876 -6.67187
26 1 13.2304 8.95358 9.81123 -2.0891 -0.365553 -4.17374
27 1 4.00731 11.5594 12.8419 -6.36075 -5.86048 15.6128
28 1 13.068 9.41054 12.6109 6.23619 4.76497 -10.3502
29 2 2.0646 11.1914 11.135 -5.62582 -10.9671 -1.92404
30 2 12.1646 2.99031 9.11899 -7.12028 3.17308 -7.72382
31 2 8.72262 2.02977 12.1013 3.3514 8.45683 1.10465
32 2 6.1777 9.24563 11.5745 6.57276 6.01803 -1.6308
33 2 10.9933 7.32039 12.0188 -4.63507 15.1935 -6.9925
34 2 7.33912 6.63835 14.8201 6.84571 -6.0732 -3.29066
35 2 2.48105 9.40497 14.4517 -2.69778 -21.9712 6.9905
36 2 1.80932 5.36101 12.3086 -7.75214 3.90742 2.97733
37 2 4.37005 4.36114 9.25536 15.8065 -1.51501 8.23605
38 2 1.4671 0.378301 13.0097 10.3426 8.18315 5.57463
39 2 9.51131 4.11301 9.41569 -0.185411 10.7691 4.97861
40 2 11.392 11.06 10.8155 7.18183 6.86625 -3.11217
41 2 5.15855 1.08897 11.0414 -11.3223 21.5606 -12.6139
42 2 9.11395 11.7452 14.0698 14.1543 1.17006 4.90076
43 3 5.07211 2.03854 12.1572 1.98306 -5.01362 -1.84824
44 3 1.74604 3.79254 11.9093 -1.41875 3.03571 -8.38362
45 3 11.8882 10.7086 12.3099 -1.17429 6.84074 0.153067
46 3 3.05852 3.3846 15.3048 -3.74183 3.02555 -1.01006
47 3 12.4707 3.14056 13.7647 2.87433 -2.13988 -7.46659
48 3 5.98111 7.39829 14.4449 -10.2042 6.46759 -9.0944
49 3 13.2889 0.382767 13.9272 2.31788 -4.06972 3.93179
50 3 4.96664 12.6133 14.314 3.20907 -7.5851 3.1405
51 3 4.75653 4.39776 10.7325 4.45047 6.54452 0.347775
52 3 2.6901 8.55653 9.6097 1.0345 -0.500417 0.633686
53 3 9.30396 10.1203 14.1892 -10.4281 2.88521 10.5205
54 3 1.65543 6.23329 11.1602 0.249449 9.81701 -0.939228
55 3 6.0735 1.51329 10.0224 -4.84004 1.61604 5.0875
56 3 5.0538 8.14403 11.4694 0.450738 4.22754 11.6257
57 3 8.42732 7.52843 15.1555 7.50278 2.09432 9.78549
58 3 1.36861 1.2098 11.7622 -3.55156 1.8759 2.21685
59 3 5.58079 3.80284 14.7951 -0.0107913 2.3274 9.64344
60 3 1.1598 9.76182 11.2837 5.00713 12.3196 5.81559
61 3 10.3961 12.5381 14.2501 1.64999 -10.2963 4.97735
62 3 5.66351 10.2174 12.7063 -3.3353 -6.93401 -10.0063
63 3 10.4646 5.05007 14.3243 -3.95978 -11.2979 0.833177
64 3 1.09186 9.77198 14.252 -6.9248 -13.581 4.06058
65 3 9.67498 7.08782 11.2068 -2.6567 7.42449 -2.42995
66 3 3.57679 11.217 11.1505 5.56105 4.39422 1.70805
67 3 8.52645 1.17162 10.5947 2.96528 4.15813 -3.9307
68 3 5.98921 10.1985 10.2682 1.65612 -3.16877 2.43818
69 3 9.67564 4.41314 10.8653 9.26526 -0.478052 3.79873
70 3 3.35317 5.29894 12.6772 -5.62166 -2.50312 1.77729
71 3 12.7322 1.92909 10.194 -3.60452 -5.77676 -6.98856
72 3 12.3219 8.03426 11.4482 4.97612 -12.2239 -0.738071
73 3 7.56858 8.65467 11.968 -0.116192 -2.88625 2.458
74 3 7.39967 5.73651 13.5204 -3.36543 4.51081 -0.0394658
75 3 5.42266 12.8639 11.4316 -4.37272 0.749008 -3.95391
76 3 8.04847 3.61603 15.3844 -2.77944 0.321335 0.554146
77 3 11.0086 12.7084 10.9279 -5.01582 2.82913 6.55013
78 3 1.67738 11.9901 12.5331 5.77163 4.55677 0.843529
79 3 12.2134 10.7651 9.52207 -5.36098 5.38288 -10.5599
80 3 10.3399 7.86068 13.2746 -4.66975 -4.87417 -1.9224
81 3 7.59498 3.17433 12.073 -7.48092 -1.46581 11.8483
82 3 12.4269 7.25072 15.1687 4.22711 5.16752 -0.227255
83 3 3.57412 1.09351 10.3472 2.30128 -6.29542 -1.1662
84 3 1.61734 12.1222 10.0573 4.11884 -13.3486 -0.60361
85 3 6.99017 5.99962 10.2294 -2.2956 -5.74672 4.14439
86 3 1.03136 5.51616 13.5799 12.6993 -6.14623 5.95916
87 3 10.1431 2.13906 12.4956 9.37328 -3.63965 3.65168
88 3 2.9597 8.29864 13.4388 2.61875 7.01327 -6.6127
89 3 10.701 2.65379 9.01411 -5.61702 -6.1891 -4.032
90 3 11.8025 5.91226 12.3411 7.51867 3.3871 6.482
91 3 10.0113 10.4432 10.8032 -2.39592 0.189647 4.13663
92 3 2.54429 1.10023 13.868 -3.97782 3.76409 -5.34814
93 3 3.83641 5.79771 9.04167 -7.96175 -1.63669 -10.0324
94 3 8.02643 12.1085 15.1787 -3.62215 -0.387602 4.2632
95 3 12.7312 4.39521 9.51577 -1.25338 -1.36591 -7.55434
96 3 3.45879 10.5393 14.3415 4.02987 -5.53318 0.342602
97 3 7.98029 1.30103 13.3524 1.43048 2.44245 -5.90341
98 3 8.30597 11.8446 12.6509 4.84948 -6.13482 6.89251
ITEM: TIMESTEP
360000
ITEM: NUMBER OF ATOMS
98
ITEM: BOX BOUNDS pp pp pp
-8.8911966683022925e-03 1.3096573196668459e+01
-7.6514174794493073e-03 1.3153235417479360e+01
9.2127394064100372e+00 1.5381309593589961e+01
ITEM: ATOMS id type x y z vx vy vz
1 1 4.20801 1.24893 14.285 10.579 -8.81486 1.06007
2 1 12.6662 1.49547 10.3059 6.43233 -3.01066 -4.26679
3 1 12.655 5.96739 13.6805 -8.19618 4.67624 -2.427
4 1 7.14876 4.01922 10.151 11.2661 2.54236 8.04854
5 1 8.2231 12.3797 11.3573 -1.98487 -9.26048 -1.64913
6 1 10.3491 4.06764 12.1292 -11.9524 -7.49065 6.55829
7 1 4.34889 3.50638 11.9558 15.1273 4.91633 -2.82631
8 1 1.65085 3.14808 14.0126 -0.320817 -0.824621 5.15604
9 1 9.94878 0.952665 10.2275 7.27033 -11.8726 5.25911
10 1 2.29675 1.25891 11.4889 -16.0172 -16.0373 -3.07146
11 1 12.9757 11.6755 9.25885 8.23353 10.8176 -19.526
12 1 2.97011 11.5743 14.2064 15.4579 2.24672 -13.3783
13 1 9.08571 9.52913 10.1247 -0.90988 -0.86361 5.36305
14 1 5.19556 11.6371 10.0519 14.2351 2.63096 -4.05711
15 1 2.04422 5.90104 14.8387 3.32554 -3.25034 -2.67115
16 1 4.71572 6.77937 13.2507 13.9638 -3.72774 -12.0362
17 1 7.40889 1.42771 15.1664 -4.23716 -2.55658 15.7212
18 1 10.2394 6.44713 15.1193 -6.03626 -1.80252 -1.05154
19 1 8.36294 6.74606 11.5803 20.7983 9.708 17.1363
20 1 7.66171 4.36761 13.2751 1.8784 3.46269 -8.09638
21 1 3.55894 9.13894 11.4447 8.77592 -2.49166 -6.16721
22 1 5.39569 9.66484 14.2439 -3.16458 -2.33733 16.0057
23 1 9.45884 9.42841 13.4712 -1.2785 6.48889 5.21756
24 1 4.47426 6.61312 10.2662 -4.39982 -12.5693 -1.30689
25 1 10.5103 1.20659 13.5004 5.58865 10.7788 -0.354871
26 1 12.9975 8.05398 10.2163 2.89597 -20.3722 -4.11505
27 1 5.99703 11.7963 13.1974 2.82388 -14.2084 -10.0403
28 1 0.0521152 9.59411 12.6766 -9.54108 -2.09846 -14.8161
29 2 1.91944 11.1495 11.1435 -14.0485 3.33557 -10.7353
30 2 0.438498 3.7905 10.0824 0.88064 14.3897 19.3094
31 2 8.25677 2.15219 12.2657 -6.82812 2.77615 9.29649
32 2 6.35502 8.96597 11.5429 -0.209852 -6.04755 -3.86198
33 2 11.0582 7.3231 12.0374 9.41816 -11.68 1.17003
34 2 7.25022 7.21178 14.8081 -15.8039 13.0273 13.3679
35 2 2.67478 8.70573 14.458 -14.9774 -1.78621 -2.50024
36 2 2.02005 5.29699 11.7803 1.52968 -6.03121 -6.46587
37 2 4.67136 4.37192 14.9972 1.91048 -7.41151 -7.25126
38 2 0.893052 0.424822 13.1771 9.79653 13.4463 -0.125703
39 2 9.80807 3.67167 15.1838 -13.9381 -12.5077 1.64491
40 2 10.8226 11.1539 11.7434 -13.88 16.9234 13.2645
41 2 5.07019 1.14357 11.1484 -4.52748 3.51662 -9.14656
42 2 8.50207 11.9494 14.5336 -8.61059 16.8072 -2.65237
43 3 4.85799 1.8864 12.4309 7.32494 -14.2036 0.06977
44 3 2.23144 3.89515 12.3401 -8.68054 -5.24729 8.07546
45 3 11.6504 11.0856 13.0088 5.33778 7.38399 -6.6079
46 3 3.53128 3.33027 14.6089 -6.67452 -13.6084 2.86138
47 3 0.118241 4.06163 14.7004 -2.77488 -8.51781 -1.9112
48 3 5.81722 7.67473 14.6078 9.97987 1.17505 3.04984
49 3 0.0463671 0.283799 14.4798 -2.65453 2.43999 -4.36491
50 3 4.47481 12.4456 14.4348 -2.17259 4.27953 12.3605
51 3 5.05235 4.21925 10.3615 -2.67543 -5.00685 6.11475
52 3 2.43643 7.70612 9.43388 -0.737463 4.29338 -2.54351
53 3 9.10855 10.5023 14.8241 -6.43684 -1.79529 -6.69366
54 3 1.06413 5.24561 10.3932 6.57683 3.44603 0.0315133
55 3 5.89634 1.97382 9.93327 9.29963 3.94139 4.24808
56 3 5.0982 8.00765 11.2981 4.68003 -3.77134 -12.0127
57 3 8.19991 8.25733 14.5648 -12.0473 -0.735592 1.49274
58 3 0.331004 0.697693 11.813 -15.2183 4.16577 3.9678
59 3 5.76079 4.26306 13.7717 3.57589 -0.190959 -5.10685
60 3 1.32774 9.89795 11.2993 -1.91958 -2.42971 3.74304
61 3 9.69158 12.9045 14.588 3.57556 -4.84677 -3.75763
62 3 6.44198 9.80612 12.7842 -4.44572 10.5526 6.88828
63 3 9.80349 4.77066 13.9726 1.66925 -2.90689 3.5616
64 3 1.1606 9.35996 14.4504 19.2719 -3.20602 0.981983
65 3 10.058 7.29343 10.7177 -5.16593 3.14144 7.17247
66 3 3.53638 11.1026 11.1809 1.60001 -4.52288 0.107498
67 3 8.20056 1.09869 10.9715 1.83681 1.54277 -4.37118
68 3 6.30765 9.93879 10.3347 5.21677 -0.582911 -2.84808
69 3 9.9566 4.47375 10.2101 8.15588 -0.427022 -4.80855
70 3 3.53085 6.01512 11.8295 -0.451771 -5.24798 1.24072
71 3 1.43533 2.79063 10.0266 1.5308 10.7704 5.24928
72 3 12.4504 8.15686 12.0225 -11.1489 -8.35199 3.57444
73 3 7.75186 8.3695 11.5148 -3.86475 -3.00986 4.81687
74 3 7.57547 6.09498 13.5415 -16.826 -0.717652 0.48221
75 3 5.85048 12.8874 11.5391 -0.65591 -8.54627 -2.35628
76 3 8.37475 3.09434 15.2848 -3.80756 0.192265 -6.35865
77 3 10.1119 12.5287 11.2659 -4.77184 9.11827 -2.71847
78 3 1.96728 12.1185 12.7786 8.39977 -0.677923 1.68705
79 3 12.0258 11.1597 10.7624 -5.24052 7.66367 0.32685
80 3 10.2016 7.775 13.2469 -6.88397 -0.0550041 0.813019
81 3 7.84846 3.77852 11.7785 -0.444087 6.0659 0.439272
82 3 12.2119 6.91041 15.0129 0.923312 -0.28456 0.180522
83 3 3.9201 0.766646 10.3281 -6.61045 5.06024 1.17463
84 3 1.48281 11.9299 9.89286 7.80565 -0.0533944 -0.47597
85 3 7.40429 5.95755 9.86953 6.68323 -1.22431 -0.193642
86 3 1.24547 5.84959 13.0443 -2.2734 -2.29972 0.762542
87 3 9.77937 2.30108 12.3641 -3.13835 1.62975 5.4631
88 3 3.20283 8.25536 13.164 -2.01267 5.87798 -2.79026
89 3 10.655 2.47865 15.0939 7.50913 17.6263 5.03147
90 3 11.5388 5.64756 12.2474 12.638 -1.22619 -4.77115
91 3 9.81263 9.99257 11.6609 1.26395 4.6965 0.284216
92 3 2.10886 1.39915 13.6352 5.14028 -4.2855 -6.56965
93 3 4.03578 5.73858 14.7481 14.9011 -10.7052 -3.64505
94 3 7.12912 12.2523 9.06448 0.0840638 2.2297 -7.85697
95 3 12.3752 3.19603 11.1311 2.42891 4.65002 1.23762
96 3 3.54456 9.92048 14.9016 -12.3084 0.665178 5.77273
97 3 7.58063 1.38608 13.2478 -6.98932 -0.778706 -5.6874
98 3 7.96772 11.7674 12.9082 5.03845 2.33457 -2.45769
ITEM: TIMESTEP
380000
ITEM: NUMBER OF ATOMS
98
ITEM: BOX BOUNDS pp pp pp
-8.8911966683022925e-03 1.3096573196668459e+01
-7.6514174794493073e-03 1.3153235417479360e+01
9.2127394064100372e+00 1.5381309593589961e+01
ITEM: ATOMS id type x y z vx vy vz
1 1 5.04933 1.34077 14.6403 5.37499 -16.5826 26.4771
2 1 7.93134 12.7299 11.6472 -6.68748 -0.413872 -12.1703
3 1 12.9068 5.99067 14.318 5.21513 -0.716697 4.81952
4 1 4.52991 7.35194 15.0406 -13.8509 -13.1012 -9.64971
5 1 11.3289 12.5869 14.1248 6.60338 -1.4359 -3.14722
6 1 10.6781 4.4935 11.9911 -10.8197 7.80925 -7.6087
7 1 6.89979 2.99422 10.4876 1.11403 -0.146667 -7.23908
8 1 3.16338 12.9139 12.9294 -0.112012 0.29211 6.80009
9 1 11.5012 2.93861 14.2074 -22.4728 -12.7799 2.9467
10 1 1.821 2.84397 14.3113 21.3087 -9.7932 -4.63286
11 1 0.14165 10.0108 12.9497 2.30867 4.97892 -19.255
12 1 5.91425 11.9207 9.14729 -0.0518984 9.86043 -8.3304
13 1 0.567821 11.2977 9.59812 8.40709 -7.749 6.50994
14 1 6.72538 10.3408 12.9658 -13.3067 -12.9732 -8.06015
15 1 2.19187 5.53541 15.3617 1.86293 -4.63756 14.3504
16 1 0.175618 6.82967 11.3331 -21.4489 -11.3614 9.51245
17 1 8.85146 1.70596 9.23446 -7.58308 -9.743 -21.6469
18 1 11.9679 8.60031 15.1364 14.5486 17.4444 19.6586
19 1 9.83352 6.43957 15.3478 4.80007 7.75085 8.06502
20 1 7.18718 5.13478 13.0598 6.22734 -12.4319 -22.2519
21 1 3.45264 7.47404 12.5933 -11.31 18.7867 -8.04245
22 1 9.03698 9.27052 10.1202 -5.07718 1.61697 -2.47027
23 1 7.03185 6.50916 10.3183 -4.12406 8.48342 -2.84822
24 1 4.77836 3.65377 12.5566 15.8105 5.42524 -11.5081
25 1 11.6344 1.16706 11.5819 -2.8116 -5.19325 -2.24804
26 1 9.52667 9.55731 13.2625 -0.713914 -20.1853 -0.0554759
27 1 3.89301 10.7501 14.62 -8.01644 0.83008 15.5625
28 1 2.33509 2.13431 11.0951 -4.77333 14.7915 13.943
29 2 3.09277 10.2378 11.3354 -19.7926 -1.81746 -7.88164
30 2 0.245307 3.75906 10.7565 1.7055 2.2617 -18.9548
31 2 8.67526 2.14936 12.4434 -3.61578 -3.15972 -0.24093
32 2 5.90013 9.35109 10.1405 5.27099 -0.966411 3.54583
33 2 11.0305 7.60065 11.6866 10.7692 3.21536 -4.16879
34 2 7.15926 7.60308 13.3708 6.95627 -27.1384 13.54
35 2 1.65556 8.05808 14.4575 -1.34008 7.41002 -10.4841
36 2 2.08167 4.73662 12.4896 -8.48177 11.7689 6.18434
37 2 4.79915 4.49044 9.62928 -13.5928 -7.31287 4.17427
38 2 0.581336 0.477351 13.6827 -15.2731 -3.39857 -10.3647
39 2 9.3491 4.12134 9.34905 -0.659337 -4.68707 -1.40364
40 2 11.308 11.2074 12.1576 -1.94356 -20.3199 -10.3866
41 2 5.08595 0.938958 11.5208 0.860641 6.5712 6.93021
42 2 8.74097 11.7669 14.9104 14.2126 -3.08077 7.67842
43 3 5.55582 2.05877 12.6164 -3.5048 1.9619 6.30738
44 3 2.94409 3.45484 12.1689 6.85949 -11.202 -10.9598
45 3 11.6228 10.6672 13.6672 9.67683 -2.71509 -2.75593
46 3 3.6781 3.3243 15.1172 10.0312 10.9925 -6.33723
47 3 12.3543 4.09489 9.64482 7.6992 1.30506 -2.73621
48 3 7.70988 8.88001 13.0501 -7.34197 -2.98617 -7.20741
49 3 0.687457 11.9819 13.928 8.84976 11.7004 -3.15731
50 3 4.64047 12.7803 14.2849 -0.992018 1.54901 4.38018
51 3 5.67723 4.42454 10.8572 4.86024 -8.09819 -1.89465
52 3 1.41711 7.10015 9.47188 -0.15367 -8.71209 6.0122
53 3 9.17072 10.3235 14.9413 6.55561 -0.748485 4.30067
54 3 1.28922 5.22716 11.1178 2.26644 1.74279 11.6561
55 3 5.86673 1.58252 10.1702 8.40866 -3.52664 2.82842
56 3 5.65891 7.83892 10.0273 3.36091 -1.84753 -8.34442
57 3 7.79589 7.24041 14.8032 4.00239 7.96469 5.16019
58 3 12.4024 1.31125 14.331 0.48715 -0.920761 -0.703373
59 3 5.78689 4.8166 14.5261 9.53154 -0.117946 -8.46338
60 3 2.6025 11.303 10.3079 6.8694 -5.14072 4.7054
61 3 9.92003 12.6747 15.2448 -8.21072 -0.57856 2.49265
62 3 7.31999 9.51825 10.6276 -2.74068 5.88514 16.185
63 3 9.81479 4.9243 14.3224 1.6881 1.00737 -3.79838
64 3 0.992693 7.22426 13.2581 4.67004 0.155369 -5.85349
65 3 9.94316 7.68079 10.5696 -2.31507 2.99754 6.52622
66 3 2.2164 9.0249 11.632 -8.99817 3.33711 7.56223
67 3 8.42532 1.17539 11.1675 3.73059 2.18521 7.35465
68 3 4.59477 9.87085 11.07 5.19271 -0.877133 11.0075
69 3 9.47835 4.9491 10.6157 11.79 -0.915493 -0.179736
70 3 3.20488 5.62467 12.9546 -4.44474 3.0203 -2.54085
71 3 1.2646 2.83444 9.92359 -6.60082 -6.28992 -0.248706
72 3 12.2162 8.41701 11.0155 -1.98387 -1.25634 6.6542
73 3 5.55888 10.2517 15.0555 3.66939 -4.70839 1.67538
74 3 7.82277 6.69102 12.1652 -8.94806 5.93053 -1.21708
75 3 5.63717 12.7491 11.5884 4.43505 17.8529 -6.8416
76 3 7.99399 3.55316 15.4351 2.22896 4.14304 10.8822
77 3 11.0616 12.6136 12.2829 -6.68026 6.40278 0.710583
78 3 0.418058 0.76895 12.2457 -6.75939 5.64074 0.943048
79 3 12.3913 11.2965 11.0986 2.54236 0.754188 -9.04617
80 3 10.6228 8.15688 13.2773 -6.79085 1.62012 -4.95589
81 3 8.01461 3.59576 12.2622 -2.53182 -1.31861 -7.01621
82 3 11.8004 6.7732 15.1376 3.73677 -10.3406 -0.316589
83 3 3.48903 0.980031 11.5055 1.11164 9.03877 3.79089
84 3 3.2135 10.8565 12.766 3.4164 -8.41632 -3.81948
85 3 5.60555 7.36929 13.0663 -1.98937 4.42081 3.37216
86 3 1.27586 4.46106 13.8833 -1.69729 -3.80794 -2.03291
87 3 10.2864 2.21248 12.5269 -5.09948 7.50751 4.71498
88 3 3.26873 8.2753 14.2249 -4.68282 6.02707 -1.52159
89 3 10.3091 2.6313 9.34245 4.45711 -7.52019 -4.82161
90 3 11.6862 6.17584 11.8815 -0.0261668 -4.35576 2.03166
91 3 9.985 10.4901 11.8439 -3.7429 0.23086 3.92746
92 3 2.19585 0.952591 13.9452 -7.58869 3.35412 0.90647
93 3 3.7463 5.63064 9.78545 -8.63329 3.06789 0.274356
94 3 7.67351 11.9615 9.9814 -7.1996 13.3736 -1.83346
95 3 12.7258 3.28121 12.1785 -5.35336 -3.9219 2.90393
96 3 0.781237 9.35722 14.6591 10.3719 -1.16491 -1.355
97 3 8.078 1.34633 13.6613 -0.985946 -7.75505 -3.93175
98 3 7.71669 11.6946 13.5347 -0.221134 -1.59885 -6.79207
ITEM: TIMESTEP
400000
ITEM: NUMBER OF ATOMS
98
ITEM: BOX BOUNDS pp pp pp
-8.8911966683022925e-03 1.3096573196668459e+01
-7.6514174794493073e-03 1.3153235417479360e+01
9.2127394064100372e+00 1.5381309593589961e+01
ITEM: ATOMS id type x y z vx vy vz
1 1 8.22003 11.5863 12.1171 1.16025 3.98955 -10.1686
2 1 8.69003 5.62373 11.3614 -3.66959 2.54483 11.3102
3 1 11.0775 6.02013 12.8975 6.153 -12.9283 7.60275
4 1 3.46603 10.2404 10.9096 -17.8859 -5.28517 5.50979
5 1 5.91515 1.72294 10.7135 5.62296 -0.778452 -8.08805
6 1 11.0804 3.44708 12.9222 -6.60669 -15.6442 12.4498
7 1 8.35009 1.36952 9.65083 5.89935 -3.096 1.70794
8 1 9.2502 8.52812 11.1674 -14.152 0.665754 12.9791
9 1 10.7743 13.0095 14.16 -2.21579 9.99247 -3.2902
10 1 0.438092 0.796848 10.5364 -6.65636 -6.95145 -1.45921
11 1 11.4579 8.91623 14.5222 -4.76311 -2.22246 -18.1957
12 1 7.61947 9.50166 13.8567 1.02706 12.1339 -3.80793
13 1 1.24313 7.21675 9.32679 -10.0413 -13.7766 -4.41425
14 1 5.30566 11.4299 12.6618 0.786882 8.15779 -3.89297
15 1 -0.0894607 11.1731 9.5259 -9.52893 -7.57193 -4.67407
16 1 12.1679 8.19552 11.131 0.747305 2.24525 6.74778
17 1 10.693 0.396172 11.3178 -5.35172 10.2924 8.69554
18 1 11.7938 5.52663 10.0438 -1.63671 -1.69951 -7.23639
19 1 5.85349 5.05708 9.66445 -10.7604 3.73205 6.94302
20 1 3.71476 4.86911 14.3976 -4.19253 -5.96917 4.19046
21 1 4.92226 8.23421 14.9294 12.497 -5.39925 -9.307
22 1 4.08495 7.04816 11.6503 -5.4902 -7.01522 1.82448
23 1 8.54606 4.06752 13.9832 -5.77964 -6.85163 2.63162
24 1 13.1131 3.33085 14.7755 7.25165 -13.0682 -12.6016
25 1 5.70995 11.6182 9.46652 -6.51147 6.59219 10.2794
26 1 0.88918 11.7238 12.7954 14.7447 -5.34897 3.23517
27 1 3.17635 2.43045 12.3469 -4.91345 10.4469 -0.446415
28 1 3.20659 0.493006 14.4 3.83129 -8.19337 3.59525
29 2 3.00543 12.8402 11.0857 2.31903 1.57579 -3.01779
30 2 0.592026 4.05205 11.2623 5.26304 -0.178484 -7.08452
31 2 8.15978 1.36995 12.6365 -4.34695 11.5047 -12.9319
32 2 6.09176 8.94651 10.6459 -6.26801 1.84859 1.64344
33 2 9.28244 7.04107 14.3849 -5.02215 5.17703 16.8105
34 2 5.96645 5.86689 13.0911 -5.12896 -10.2531 -5.61399
35 2 2.81623 10.149 14.2541 -1.60862 3.4866 -13.8731
36 2 1.70153 7.59254 12.6102 -5.69005 -0.409664 -12.4365
37 2 3.37806 3.72346 10.2134 21.5321 -10.575 1.88371
38 2 12.8734 1.1254 13.3792 -9.61566 -3.73465 -2.0028
39 2 10.2675 3.29255 10.0037 -2.89203 -1.87717 -1.37785
40 2 11.3329 10.6864 12.5381 -8.42685 13.1931 4.15226
41 2 5.60424 1.73688 14.0665 14.4662 7.9801 1.24468
42 2 9.02562 11.22 9.81953 1.99273 2.84378 -2.8784
43 3 4.49483 12.7329 10.9069 -6.75829 10.1871 3.74562
44 3 0.15822 8.0051 12.6614 9.44997 9.9626 8.93858
45 3 12.4771 10.967 13.7699 -1.12421 5.18566 1.47621
46 3 4.39831 2.56634 10.7967 5.16859 -1.02565 8.48322
47 3 12.5811 4.51166 12.7349 -8.30256 10.1607 -2.92274
48 3 8.55643 7.81442 13.3215 2.12579 0.113427 -8.85876
49 3 0.756617 2.19034 13.6513 3.7607 -0.964214 10.6239
50 3 6.91564 11.4971 13.7364 -6.60289 5.50858 -3.58574
51 3 4.25934 5.08909 9.98148 16.0167 -5.3657 -1.09253
52 3 3.21268 9.1795 9.36465 6.5255 9.44098 -2.68477
53 3 9.42895 10.2969 10.9409 1.37185 -5.51183 -3.0896
54 3 2.32102 3.97278 11.418 -7.96707 0.81429 -14.0035
55 3 6.78961 2.09071 15.067 3.16829 -4.49206 7.89719
56 3 7.15574 9.0405 11.6861 -1.23938 -3.61794 7.28636
57 3 6.98487 5.24973 14.3557 3.30079 -9.43251 -9.63291
58 3 11.4564 1.61669 12.9504 -2.15227 0.314131 1.65959
59 3 4.6221 4.92097 12.9861 3.54493 -10.3709 1.19471
60 3 2.36629 0.602952 10.0542 -3.79492 -1.64489 -6.59197
61 3 10.2302 12.5035 9.70365 8.16291 -2.59768 -7.60137
62 3 5.17604 10.121 11.4351 -8.54304 2.98872 -11.7407
63 3 11.3036 3.55228 14.9856 -3.0003 2.61431 -0.627328
64 3 2.32853 9.22765 13.1949 -4.62839 2.62033 -1.44821
65 3 9.4791 5.49078 13.3329 1.80833 1.8264 -7.59517
66 3 2.75869 0.430131 12.6251 1.4931 12.1347 9.71618
67 3 8.13531 0.523756 11.3779 -1.66341 -5.63886 -2.95923
68 3 5.32465 7.56302 10.411 4.58648 -1.90947 -7.49673
69 3 8.74274 3.50459 9.51556 6.12471 1.65137 1.99936
70 3 2.28032 6.78466 13.851 -8.99067 -14.1467 7.81676
71 3 0.463958 5.25672 10.1558 -1.57324 2.31053 1.23768
72 3 0.0746751 8.55603 9.36973 0.0661417 -3.20843 9.89032
73 3 6.18201 9.425 15.3184 0.770715 -5.22821 -0.110189
74 3 6.8496 5.46053 11.6424 -9.17517 5.23836 -1.41489
75 3 5.2621 0.289178 14.8228 8.02425 -5.29568 -3.29584
76 3 10.3694 1.89649 10.2669 4.25589 -0.213135 -6.07766
77 3 10.4718 11.9205 12.7909 -0.551115 4.23106 2.14215
78 3 12.6179 0.201307 14.9355 -4.70593 -14.0629 -1.31662
79 3 12.1141 10.7453 11.1677 5.39568 7.70362 8.68354
80 3 10.7485 7.25194 14.4999 9.13199 2.79285 6.08713
81 3 6.27143 1.51599 12.669 0.140832 0.35713 1.45123
82 3 11.1713 6.75605 11.0852 -15.4429 8.22715 -8.68741
83 3 4.37641 2.54942 13.8268 1.1629 1.99673 7.3899
84 3 2.27192 11.5371 11.3528 -2.23007 5.40775 -10.9478
85 3 5.36139 7.24262 13.4362 4.52922 -5.23864 10.0546
86 3 2.29062 7.3183 11.2156 -2.41448 -2.09316 3.73898
87 3 8.53415 2.93559 12.6537 9.12239 6.00879 11.8321
88 3 4.24353 10.8414 14.0106 2.05933 -1.47564 -5.16708
89 3 10.5997 4.35032 11.1412 2.86873 -1.08808 2.33944
90 3 8.73093 6.95301 9.71838 1.48678 -8.7182 -7.79499
91 3 10.9108 9.20244 12.7501 5.55535 -2.6972 2.4668
92 3 0.0252764 0.119917 12.2456 -13.262 -3.19869 5.37125
93 3 2.3182 3.57429 15.3051 3.64884 2.93123 5.85307
94 3 7.53999 11.6835 10.221 -0.871138 -7.62845 5.62892
95 3 0.186509 2.5926 11.0337 -2.55456 1.42907 0.817634
96 3 1.78376 11.2587 14.7289 -1.24296 6.45952 -0.172676
97 3 8.6801 0.642147 13.827 1.97481 3.98098 -6.27279
98 3 9.13467 10.1647 14.8184 5.69316 1.13863 -0.2297
ITEM: TIMESTEP
420000
ITEM: NUMBER OF ATOMS
98
ITEM: BOX BOUNDS pp pp pp
-8.8911966683022925e-03 1.3096573196668459e+01
-7.6514174794493073e-03 1.3153235417479360e+01
9.2127394064100372e+00 1.5381309593589961e+01
ITEM: ATOMS id type x y z vx vy vz
1 1 8.39826 12.2256 13.4531 15.8187 -8.29831 -15.6857
2 1 9.42236 8.86418 10.2923 15.5243 14.0904 -4.69947
3 1 1.53817 3.89592 11.7971 0.510836 -4.63716 17.9128
4 1 2.8955 10.0044 10.9542 -5.66098 -12.6946 -7.59797
5 1 10.2228 5.74319 12.4062 -11.1466 9.42842 14.6187
6 1 11.926 2.72007 10.9017 -13.329 33.0667 -2.72741
7 1 11.5269 10.9496 10.5745 -3.66129 -18.6871 10.6455
8 1 12.7114 8.14081 10.314 6.24502 7.95879 7.84085
9 1 1.09675 11.9327 12.3607 -17.9407 8.4699 -3.556
10 1 3.89113 1.94157 12.7169 13.3308 -2.11552 2.74066
11 1 9.52372 4.8 15.1031 -7.44427 -10.6775 3.29392
12 1 7.15097 9.41729 14.8659 -7.44758 -5.64752 -2.45779
13 1 12.9247 5.70887 13.7552 -2.03534 21.4275 -9.80364
14 1 5.61731 11.044 13.8246 5.45765 -1.51923 -15.691
15 1 0.986802 1.28792 15.6667 12.018 -4.71727 1.1623
16 1 11.0404 8.80724 12.4126 0.93299 -3.0029 4.68171
17 1 9.87996 1.38011 9.43697 2.60641 1.2908 -5.21807
18 1 7.13384 2.82866 14.7285 -2.43693 13.2783 7.59524
19 1 7.7477 6.00167 11.5375 -14.2733 -2.91566 7.08135
20 1 2.43361 6.84872 10.4255 11.8886 -11.9253 -1.01701
21 1 7.72501 8.69449 12.6077 14.1674 -9.58548 21.3677
22 1 2.4174 6.19131 13.8479 5.30225 1.85863 10.6961
23 1 9.21795 1.03598 12.727 10.0503 0.723941 17.7199
24 1 4.13196 2.60884 10.2054 15.5688 -1.75949 9.79967
25 1 3.11207 12.3162 15.5233 -31.5266 -0.970446 7.87795
26 1 5.45218 7.14376 13.4776 3.53483 6.64753 3.16309
27 1 6.42653 1.10498 11.3134 1.08873 -4.73053 -7.40104
28 1 6.08124 10.8253 10.7776 -8.66131 -0.0119721 -10.5675
29 2 3.85362 12.4112 12.1353 -0.0936808 11.7164 2.79168
30 2 12.117 5.60199 10.6366 5.11999 5.62178 2.84299
31 2 8.71316 3.23056 11.245 1.24018 -12.5847 7.31111
32 2 5.17745 7.41997 10.518 0.962085 6.42013 -13.3152
33 2 8.43856 7.0417 14.6635 2.89634 -2.38859 -3.8025
34 2 4.89634 4.26107 13.3126 -7.01798 -2.26437 -1.69059
35 2 3.12149 9.24543 14.2485 -7.06761 6.72288 -16.7974
36 2 0.876444 8.4457 12.7812 11.5268 -4.91976 -4.78613
37 2 2.40852 3.97812 15.2261 5.13428 -2.22241 2.67106
38 2 0.978003 1.24395 12.5118 1.5713 -0.918158 -14.9779
39 2 11.7345 2.86734 13.7849 -7.42758 9.27339 5.03705
40 2 11.2276 11.7996 13.6456 1.79359 -2.70066 8.44581
41 2 5.25961 0.43681 14.8113 -6.52875 -2.85259 -9.05697
42 2 8.71856 12.3384 10.4436 2.11982 1.96303 -9.41491
43 3 5.08721 11.5878 11.9008 -2.64291 6.90711 -2.00647
44 3 12.8312 8.97682 13.5294 -2.4603 6.2916 -0.559299
45 3 11.6938 11.6821 15.2047 -10.6387 1.26589 -0.489899
46 3 3.91983 0.954559 15.2804 -3.43112 4.09393 8.08906
47 3 12.8942 4.37511 11.3022 -8.87293 -6.13386 7.68728
48 3 7.14659 7.56994 13.9753 -18.3518 6.70635 1.19035
49 3 2.0293 2.42151 12.6427 -13.4968 -1.07731 6.25651
50 3 7.2067 10.5643 13.3923 -3.62459 -1.44047 -5.91146
51 3 2.38222 4.98232 10.3585 7.91486 -5.87084 -7.42044
52 3 2.82596 7.80104 14.718 2.03564 2.16628 1.36253
53 3 8.07511 13.0006 11.7143 -2.59831 17.4827 -11.985
54 3 2.16702 2.71836 9.7201 2.48197 4.7733 4.58511
55 3 6.12379 1.45086 9.6735 5.3702 3.6819 -1.74006
56 3 5.9381 6.81652 11.9233 6.51831 -8.74121 3.72287
57 3 6.10604 4.17953 14.1124 4.19483 -0.692808 0.701776
58 3 12.5588 2.12893 12.5085 3.55142 -0.00989589 0.159611
59 3 3.83486 3.72319 14.6372 0.0738603 -5.54716 0.022076
60 3 3.91686 0.689152 11.5628 0.319984 4.10135 -7.00099
61 3 10.11 12.8667 10.6971 -2.84269 5.093 -6.6074
62 3 3.75502 7.92122 10.9247 -5.87178 -1.18081 1.34037
63 3 11.5345 4.38205 13.5781 6.95341 -1.61929 -2.73644
64 3 2.16911 9.41769 12.9959 -3.57361 -3.32948 6.87698
65 3 8.15059 6.28537 9.80816 -8.96207 -1.72682 10.5817
66 3 3.55402 12.0521 13.6524 -4.64749 6.63161 0.667697
67 3 7.8098 2.07061 12.1493 9.26983 2.31279 -2.70417
68 3 5.14107 6.48296 9.3893 4.94353 7.33155 2.22028
69 3 10.2488 2.73294 14.0423 4.59093 -1.58696 -0.736233
70 3 1.06709 6.9089 12.9474 -11.7948 -3.35347 1.86497
71 3 11.8194 6.51003 11.833 4.46124 -12.8386 7.30375
72 3 11.3227 9.25126 10.4635 -1.4497 3.78502 3.75985
73 3 6.10415 9.07986 10.1772 -4.03668 -5.90897 -3.43007
74 3 4.81559 3.26612 11.904 0.990636 -0.26047 -4.68727
75 3 5.64075 12.1319 9.39511 2.71036 -6.33909 -1.39393
76 3 12.3939 2.31482 15.2756 -3.33067 -7.85703 2.75294
77 3 10.2908 13.0925 13.5989 1.05258 0.865802 -9.79493
78 3 1.03124 0.254741 13.6471 5.17729 -1.08162 -2.6086
79 3 12.2657 11.8146 12.3626 -2.63379 2.81053 4.54764
80 3 9.4109 6.12821 13.9664 3.39292 6.64359 -3.4454
81 3 8.46633 3.29777 9.67307 11.2017 -3.68015 -1.1057
82 3 8.97569 7.78674 11.5412 -1.14916 -1.9004 -5.42642
83 3 5.70236 0.848127 13.4189 5.30739 6.86203 5.44592
84 3 2.596 11.7992 11.3586 -1.78026 -0.329593 -3.33183
85 3 4.09623 5.57234 13.1576 8.89964 8.17946 -4.43376
86 3 0.798505 8.88347 11.3021 4.71987 -4.59178 -0.766463
87 3 10.025 2.51382 11.1118 -2.55294 -2.87431 5.29068
88 3 4.64473 9.17125 13.667 -7.76979 -5.0985 -5.37769
89 3 10.6705 5.15217 10.3438 3.28281 7.32559 11.5953
90 3 8.99661 8.50923 14.9061 9.69754 -8.97528 11.4744
91 3 10.4057 10.4932 13.4722 1.31685 -4.19083 -10.2623
92 3 0.896457 0.712406 11.0842 -1.25963 4.19105 8.2931
93 3 1.45921 4.69535 14.2201 -3.04851 -7.52634 -1.71603
94 3 8.31161 13.0567 15.2859 -1.17533 4.72465 1.08199
95 3 12.9222 6.15922 9.43806 6.82426 -2.89603 -1.01871
96 3 2.9829 10.3554 15.4007 3.55358 -3.35543 -0.330339
97 3 8.73062 4.39037 12.2045 -9.46594 -7.34747 -2.29832
98 3 8.47103 10.7857 10.375 7.55002 -5.26033 -8.89434
ITEM: TIMESTEP
440000
ITEM: NUMBER OF ATOMS
98
ITEM: BOX BOUNDS pp pp pp
-8.8911966683022925e-03 1.3096573196668459e+01
-7.6514174794493073e-03 1.3153235417479360e+01
9.2127394064100372e+00 1.5381309593589961e+01
ITEM: ATOMS id type x y z vx vy vz
1 1 8.9733 8.58449 9.55953 -11.1804 -1.27542 -8.96212
2 1 10.3919 10.6643 9.2484 -21.1226 0.85528 -2.62564
3 1 4.15404 6.42983 12.9998 -1.19943 -11.3667 16.2391
4 1 3.19621 9.64274 13.4829 7.30919 4.69199 13.8718
5 1 7.55344 2.2492 14.5508 9.30052 7.96057 14.6633
6 1 0.599237 3.16002 9.89028 6.87936 5.27859 -17.5682
7 1 12.5142 9.19069 10.6847 -5.02674 -3.54701 2.07079
8 1 11.4907 8.31967 14.4917 -17.2474 -1.63187 -13.9972
9 1 1.78741 11.8667 12.8803 -6.24051 7.8249 -21.72
10 1 3.14387 1.89589 14.1706 3.57884 23.7317 -8.48683
11 1 10.3902 7.32713 11.327 -8.30015 -7.62553 -0.0837583
12 1 5.83669 7.99861 15.1214 8.45816 -10.4594 4.08945
13 1 1.27708 6.73439 8.83341 19.9675 -19.3855 3.5063
14 1 6.59547 11.5367 11.142 10.3936 20.2923 -0.398331
15 1 11.7943 12.8411 11.0498 -1.94106 7.56121 16.5121
16 1 8.51287 9.86548 12.068 13.1531 -17.5398 -12.9938
17 1 11.0598 4.75639 13.391 6.50605 17.2921 -9.55019
18 1 9.00988 12.8209 12.9494 19.7319 -9.80097 -4.26778
19 1 8.31223 6.04885 10.6897 -0.821027 -8.26994 4.48856
20 1 3.81861 6.48859 10.6347 -24.2078 -2.47746 10.7201
21 1 4.38947 10.1827 9.81718 -7.73299 -6.04965 11.676
22 1 6.01785 11.5158 14.2942 -5.27786 -7.69472 -8.64376
23 1 12.7293 12.763 14.8257 6.51831 6.39034 6.46473
24 1 3.00083 2.5391 11.3251 3.14157 -14.8356 -8.36481
25 1 2.61766 12.4247 9.30459 1.44704 9.76139 -4.09988
26 1 10.6151 2.30089 9.60998 -18.6702 -3.52158 1.13442
27 1 5.6983 3.9718 10.0879 -0.617661 -11.3732 -3.77852
28 1 6.29247 1.29144 12.4108 3.4564 3.45065 -13.6743
29 2 4.22697 12.7149 12.5153 13.3706 1.6061 -5.85172
30 2 11.888 5.27938 10.4618 -22.0232 -14.8016 -5.58509
31 2 8.49273 2.81045 11.162 -0.468015 -1.49276 -12.1555
32 2 5.03132 9.02895 12.0799 5.31545 4.26067 -18.7179
33 2 8.94604 6.91162 13.8665 -8.14658 11.3624 -1.37801
34 2 6.48058 5.27962 13.3596 11.1736 9.36067 -1.06266
35 2 1.14616 10.0209 14.5481 13.6867 -12.3943 3.36724
36 2 0.903413 6.21426 11.9279 4.08707 0.117059 -1.97914
37 2 3.07768 4.49537 15.0956 -3.43399 2.02936 4.65643
38 2 0.545062 1.39059 12.4689 14.2791 1.35253 21.8679
39 2 10.7519 2.0146 12.6388 1.46387 1.74835 -3.31111
40 2 11.3508 10.7032 12.5423 -25.4186 7.11002 -10.6435
41 2 5.00221 1.12278 9.73307 -4.7636 -8.81035 -4.21307
42 2 8.74432 12.2118 9.71395 -5.83671 -0.925596 8.64761
43 3 5.72944 12.5401 12.596 -6.62446 1.42031 -2.01212
44 3 2.53966 5.8251 11.9217 4.15226 1.87128 2.29252
45 3 11.778 11.2622 13.854 0.102104 8.10991 11.7172
46 3 3.32125 1.11843 9.57277 4.37331 2.89196 -1.75782
47 3 12.7933 5.21468 11.887 6.6853 -2.48342 2.86976
48 3 7.92715 6.08205 12.926 2.45399 -10.4833 0.109022
49 3 1.14627 2.27766 11.5391 -11.9033 0.0530155 0.835335
50 3 5.93055 10.0335 15.0308 -5.74907 -8.74738 14.381
51 3 3.83466 4.04006 10.0275 0.657645 -9.50016 -0.0554461
52 3 2.68054 10.0098 15.3938 -2.21166 4.59078 4.0701
53 3 7.97043 12.6069 11.0163 2.72278 1.40022 -6.5615
54 3 1.54336 4.40805 15.2175 1.78285 15.2701 12.4673
55 3 5.56994 2.07749 10.8538 2.64357 1.89589 -5.66418
56 3 6.4461 9.76866 11.9661 -2.24061 -2.93874 -0.200898
57 3 6.77007 3.97749 14.2062 2.01527 0.33905 -3.86341
58 3 12.4039 2.22482 12.8204 -6.12872 -1.85691 -3.08299
59 3 3.39522 3.61709 13.9213 8.72163 4.09313 -0.348
60 3 4.02825 1.17524 12.6173 8.99496 -1.60356 -4.25912
61 3 10.2356 12.4823 9.82097 -0.87639 -6.45616 -6.48638
62 3 3.75307 9.78433 11.7619 1.95265 -4.17117 16.2365
63 3 10.2733 2.92111 13.9463 7.52812 7.15785 -2.29773
64 3 1.53148 9.92149 13.0275 -10.2863 -2.55885 2.21058
65 3 8.32186 6.81957 15.3317 -1.16775 -0.41206 2.99472
66 3 3.49994 12.0338 13.6794 -7.3363 6.46229 -2.50893
67 3 7.86523 1.85835 12.2349 0.493387 -8.58965 3.94186
68 3 4.6801 8.18996 13.3944 -2.15775 2.35794 5.47142
69 3 10.5879 0.518887 12.5372 12.9744 3.93701 -2.51366
70 3 0.937398 7.46805 11.032 5.81061 6.71786 -0.00851554
71 3 10.5023 5.63133 11.1699 -3.44764 -3.93045 0.676415
72 3 11.0081 8.95424 9.78989 -12.4491 2.97173 4.61749
73 3 4.98774 8.08058 10.7087 -10.8923 -5.05894 -3.19525
74 3 5.42142 5.12051 12.3577 0.589321 -5.3701 -5.399
75 3 5.35582 12.5816 9.76419 -6.76572 -2.0918 16.7665
76 3 12.1063 0.981178 9.74372 -3.68907 -14.8715 -2.52434
77 3 9.90449 11.0724 12.514 15.0626 8.84646 5.80492
78 3 1.46244 1.40539 13.9894 -5.74157 0.468332 -4.26447
79 3 12.038 10.9583 11.1374 -5.65084 7.6513 -6.88822
80 3 10.165 6.21598 13.8207 5.96841 -1.02765 3.72442
81 3 8.62267 2.00241 9.70994 4.28673 9.30289 -11.0085
82 3 8.82579 8.08552 11.2639 -4.28916 -2.8228 -6.0731
83 3 5.72048 1.62795 14.5355 -3.13428 -3.09549 -0.562347
84 3 3.16924 12.4743 11.2115 -0.107891 -3.89799 -13.7843
85 3 5.81851 5.99707 14.4027 1.20057 4.9159 11.1949
86 3 0.583277 6.84169 13.4506 0.362179 1.62235 0.496613
87 3 10.2853 2.95412 11.4207 -3.8231 -2.67392 -2.13551
88 3 1.06727 11.6446 14.7811 -0.227488 5.22942 -0.841154
89 3 11.8886 3.82692 9.96924 -7.14616 -1.40956 -1.82976
90 3 9.0351 8.51096 13.7621 4.68445 -0.271202 -1.0194
91 3 11.4879 9.05013 12.3909 0.106409 -3.21454 5.89273
92 3 0.232203 13.0722 12.1764 -10.8796 2.77994 -1.40939
93 3 3.19104 6.14088 14.895 5.8148 6.63758 -1.37947
94 3 8.24264 12.6181 14.4658 6.57517 -1.60563 4.94684
95 3 12.1935 6.42662 9.45179 11.4413 2.39765 -3.75543
96 3 0.247925 8.96698 15.0789 4.89231 -6.5121 -1.79243
97 3 7.86638 4.20585 11.1984 0.339225 -0.960599 7.84752
98 3 8.46491 10.594 9.93916 6.28288 4.92672 -7.23842
ITEM: TIMESTEP
460000
ITEM: NUMBER OF ATOMS
98
ITEM: BOX BOUNDS pp pp pp
-8.8911966683022925e-03 1.3096573196668459e+01
-7.6514174794493073e-03 1.3153235417479360e+01
9.2127394064100372e+00 1.5381309593589961e+01
ITEM: ATOMS id type x y z vx vy vz
1 1 5.34565 9.04173 14.2894 -9.73726 -7.66762 1.98871
2 1 7.90533 6.87555 12.0435 -3.50576 1.60482 -8.50475
3 1 6.55429 6.91648 14.8368 -10.4272 15.1964 -0.512042
4 1 1.08987 6.8863 10.8563 -2.17314 13.4654 -0.882101
5 1 5.85308 2.52437 10.385 0.760097 -8.61501 2.74309
6 1 12.8976 2.91086 9.6842 4.83106 11.7327 14.1533
7 1 1.83742 4.18751 9.83664 2.92904 8.23974 -1.96671
8 1 11.3488 9.97551 11.057 -20.4346 -0.35642 9.42113
9 1 11.6038 7.5137 15.3843 -28.2236 -7.99888 18.9334
10 1 1.75196 1.23706 13.4661 13.0276 -1.20083 -13.0914
11 1 11.3501 7.40352 12.3304 2.82116 -3.79764 4.99425
12 1 4.64551 12.7195 14.4099 -1.36626 -12.2787 -19.9316
13 1 9.41549 1.04708 13.4046 -3.38794 -10.8985 1.75123
14 1 3.50364 6.80389 11.9158 -4.47976 -17.423 -16.8895
15 1 11.6767 13.0077 14.7325 5.37691 5.16569 9.38979
16 1 7.90067 9.42716 13.2455 -4.7405 3.96678 4.65958
17 1 8.62002 3.45296 12.0702 -5.43385 -9.33617 -14.7551
18 1 8.06535 12.1501 14.872 -6.05659 2.88238 -2.10281
19 1 8.65616 3.545 14.7873 3.90555 17.807 -4.31172
20 1 12.0093 4.24913 12.9751 23.7949 2.15991 -1.8761
21 1 5.7612 9.04739 11.259 7.19107 0.314142 -8.38178
22 1 6.98037 12.2625 11.7501 -17.2487 1.50934 -11.7185
23 1 0.45964 11.7517 12.4482 20.0312 4.17285 -13.296
24 1 0.511784 9.27293 9.36469 -2.49404 7.90518 24.2544
25 1 1.4932 1.09968 10.3918 4.52771 -2.09505 -8.60786
26 1 10.153 12.259 11.7545 -0.597052 -1.33066 4.94281
27 1 4.0571 10.7579 10.9671 -3.71219 8.77606 21.2563
28 1 4.09296 3.70935 13.8131 -14.3362 -5.70126 -1.58691
29 2 4.39224 0.398227 11.2985 2.39483 -7.58778 6.58177
30 2 10.9284 5.0686 9.75277 -7.72095 1.55096 2.81655
31 2 8.99812 1.17852 10.3649 1.58147 -1.1372 6.51211
32 2 3.24343 10.3456 13.2321 4.79048 -1.12079 -2.28501
33 2 9.36141 5.66844 13.4385 -7.03305 7.12848 -12.7331
34 2 6.26698 4.86111 10.8162 9.22562 1.05345 11.2827
35 2 1.32706 11.5172 15.1795 0.306419 -3.48578 7.18813
36 2 0.593583 6.58865 13.6897 -3.73906 5.03027 22.6205
37 2 4.18034 6.00759 9.52473 -10.9986 -1.22928 7.98206
38 2 1.94171 4.5928 12.38 14.9466 -20.1753 8.65598
39 2 12.2617 1.197 11.9772 3.30659 -1.98559 5.7982
40 2 10.9723 10.2887 14.0465 -11.5356 -11.4365 -14.8839
41 2 6.27809 1.23087 13.5957 9.57351 -0.12142 2.731
42 2 7.92022 9.44351 10.2617 3.68781 5.34407 -3.15048
43 3 3.87065 1.28277 10.2147 -2.63961 -9.3023 1.20627
44 3 0.461262 7.34582 15.0252 -4.80907 11.8143 3.60259
45 3 10.5317 11.4499 14.8146 0.955307 -6.57269 0.0276326
46 3 5.25837 2.03615 14.2277 -3.62927 -3.75926 -3.92205
47 3 1.33951 5.32752 13.8948 -3.90058 9.65691 -13.1796
48 3 9.99467 4.26715 13.0106 1.26219 2.2156 -12.9217
49 3 0.741134 4.4902 11.2352 2.4418 -8.79392 8.49568
50 3 4.59736 9.1903 9.81358 4.54351 11.8486 -5.28695
51 3 5.2832 6.33144 10.6246 -4.71654 5.5325 -2.89219
52 3 0.304376 12.1289 14.2295 3.95855 4.08255 -0.261358
53 3 7.33562 10.2776 11.7334 -5.0594 -1.87652 3.35452
54 3 3.69676 4.53015 9.41053 -8.12154 1.39856 10.5043
55 3 7.76542 1.86254 10.1166 -10.5742 8.77276 -3.88474
56 3 5.20811 12.1273 10.5304 -0.709287 -4.23088 0.0750739
57 3 6.26596 4.00135 9.47003 -8.91422 3.4558 -0.948811
58 3 12.1316 2.81833 11.9658 -5.14735 -5.96892 -0.766051
59 3 4.76271 6.5634 14.3284 3.9218 2.38708 9.16292
60 3 5.72294 1.16802 12.0168 4.61154 -4.60687 6.26992
61 3 9.27861 9.46844 10.476 -10.3845 -0.975776 -8.35565
62 3 4.55689 11.0338 13.6286 0.227155 3.70269 3.4387
63 3 9.67713 1.72378 11.6672 -5.25247 9.44385 0.354964
64 3 2.51302 12.5532 9.41963 2.52868 7.51482 -8.25962
65 3 10.1753 6.26801 14.7714 10.412 2.89326 5.09987
66 3 3.51903 0.155743 12.5739 8.7753 7.83028 -9.65122
67 3 8.65049 12.5439 13.1522 5.97672 -3.89027 3.18598
68 3 3.96866 8.9621 12.5889 -0.597137 5.75949 1.52875
69 3 11.6268 0.381967 13.0719 4.26376 2.58068 11.7557
70 3 1.33517 7.34877 12.4738 8.20271 -4.67618 -9.21121
71 3 12.1432 4.13451 15.1074 -5.5364 -7.24367 -2.29179
72 3 12.177 8.57775 10.9946 10.1576 -10.7716 -1.60554
73 3 2.34565 10.9492 12.2233 4.41447 1.42231 -1.13249
74 3 7.74839 5.34221 11.1293 -13.3775 2.38724 8.66931
75 3 6.43451 13.0327 14.362 7.61708 -6.36999 4.62984
76 3 1.45895 2.34806 9.32696 2.52985 -2.63963 -6.51747
77 3 11.5482 10.9214 12.6031 -3.6458 8.14921 -6.33375
78 3 3.22126 5.15449 11.9032 -3.66933 2.38935 -4.31064
79 3 12.1637 9.41654 14.6588 6.36358 -9.53685 4.33579
80 3 9.51179 6.80777 12.453 3.43788 -1.87733 -8.34049
81 3 8.99547 12.6876 10.4576 -7.70923 0.788014 -1.86161
82 3 6.73528 8.20728 13.3855 1.86353 6.67773 12.722
83 3 7.97469 2.1642 13.5289 5.0452 0.0187599 -6.2011
84 3 1.92722 3.05002 12.8694 9.79693 -3.61036 3.48208
85 3 5.58685 3.86897 11.7318 -5.39058 -3.02992 7.69239
86 3 12.2176 6.27352 13.3496 -2.84657 2.91799 -6.39854
87 3 12.0964 0.680517 10.2515 13.4815 3.28569 -4.76219
88 3 2.15657 10.2049 14.3919 3.36061 -1.37708 -6.20454
89 3 11.5549 6.16293 10.6309 -4.54792 -4.42734 -10.4894
90 3 7.96014 5.37139 14.0015 -2.9575 1.2731 8.7201
91 3 9.95752 9.08761 13.7103 4.51374 1.61053 7.23586
92 3 0.862193 0.699623 12.0874 -1.49459 0.900568 8.66667
93 3 2.94113 6.91615 10.0862 4.03732 -0.832741 2.91797
94 3 7.4931 10.2373 15.0265 13.11 -2.28294 0.0635089
95 3 9.84681 4.14489 10.1666 -0.179008 0.517047 -6.33343
96 3 0.57136 11.0844 10.3038 -8.52782 -10.9451 -7.31832
97 3 9.83467 0.936162 15.1049 -2.05628 -3.79715 0.487987
98 3 7.11297 8.12325 10.0622 -1.62474 -2.38614 2.28366
ITEM: TIMESTEP
480000
ITEM: NUMBER OF ATOMS
98
ITEM: BOX BOUNDS pp pp pp
-8.8911966683022925e-03 1.3096573196668459e+01
-7.6514174794493073e-03 1.3153235417479360e+01
9.2127394064100372e+00 1.5381309593589961e+01
ITEM: ATOMS id type x y z vx vy vz
1 1 5.45055 3.48352 12.7276 -4.18756 -4.25538 0.463372
2 1 8.95424 10.4297 9.89236 -6.32837 4.93384 -3.9219
3 1 7.41472 4.1062 9.92037 -13.5544 -8.26251 -7.16173
4 1 2.65417 6.60043 14.5757 -5.1681 10.7727 -6.10866
5 1 8.41503 2.56958 12.4056 -5.93665 -1.24202 -13.9747
6 1 0.997678 1.3662 11.2152 14.3068 12.3867 11.1828
7 1 12.6052 7.39791 14.9596 -4.51988 -1.11789 -6.94197
8 1 6.8326 12.2607 14.1459 -3.07278 1.23115 12.2041
9 1 7.46453 7.14858 9.64214 -15.1361 -16.9018 -1.69187
10 1 0.715674 11.8703 13.9172 -3.56717 4.96727 -8.15575
11 1 0.899755 9.9431 10.5991 -5.95728 -13.9703 -20.4703
12 1 3.0711 11.6522 11.7544 -13.1075 -6.22841 -8.97048
13 1 11.6632 2.95296 10.8141 5.16859 3.88807 3.08881
14 1 10.0375 5.22478 11.4815 8.47168 -18.9142 -4.4038
15 1 6.16206 12.48 10.2265 -3.32014 -3.67601 2.98179
16 1 9.81281 7.63375 9.95096 9.0538 -0.750607 1.08524
17 1 8.15334 7.58307 12.4174 -1.86561 8.25061 0.853699
18 1 10.5049 8.69048 13.2904 -7.52856 -4.23455 -3.75504
19 1 2.07385 6.77939 11.3065 2.91801 -10.0377 17.1283
20 1 0.850416 5.22399 13.2371 3.35783 -10.1102 -5.94489
21 1 4.09276 3.56596 9.80611 7.39067 15.1889 14.7041
22 1 6.71008 9.97256 15.0298 23.4479 -4.19727 -21.9544
23 1 3.10688 0.513716 13.7631 -16.4615 9.4807 -20.8031
24 1 5.48963 8.34917 13.2817 -2.88092 5.3805 10.4941
25 1 12.8849 1.53029 14.6451 17.0722 -15.2056 -4.76647
26 1 8.68976 12.9491 11.3477 -0.803161 -5.98221 0.0748941
27 1 11.4824 10.6116 11.9318 7.60118 -0.00658998 -8.82182
28 1 9.77829 12.5765 14.4497 1.02287 -8.77234 18.338
29 2 3.87612 0.940334 11.3212 -6.02652 -12.2323 0.384339
30 2 11.913 3.70384 13.6524 4.98848 11.4188 -12.9451
31 2 9.16016 1.70228 9.99235 -10.8043 15.7876 2.22579
32 2 2.15847 8.71928 13.3899 -2.03269 -9.72684 8.95641
33 2 9.61826 5.32276 13.8904 3.46516 5.40813 5.77639
34 2 5.88307 5.78982 11.749 7.0833 11.9677 -8.94329
35 2 3.59569 10.9066 14.8742 6.4938 -7.40447 -3.2989
36 2 12.2331 7.37667 11.4832 -2.51795 2.83223 4.23798
37 2 4.82215 7.97778 10.2048 1.80675 -9.97755 -1.10875
38 2 1.56562 4.41283 9.8813 -5.70702 -3.90715 1.24719
39 2 11.8626 0.0723004 12.5761 -1.15115 -0.33487 -2.93042
40 2 11.4741 10.1379 15.1994 -1.12353 -7.76956 -4.88119
41 2 6.47935 2.09023 14.5034 13.7057 20.0702 1.35374
42 2 7.6149 10.3376 12.0066 5.9618 -5.10897 -6.54654
43 3 3.73151 1.99492 10.1056 4.09965 11.649 3.114
44 3 12.7142 6.4545 12.6604 0.446361 -3.13886 9.42742
45 3 13.0292 10.4098 15.1855 5.44163 6.95626 -2.54303
46 3 5.73345 3.19671 15.0021 -0.0470967 -2.50205 11.9768
47 3 0.5723 5.41141 15.3751 6.25634 -4.07313 -0.360997
48 3 9.04702 4.38447 12.895 1.58865 -4.07104 1.46218
49 3 2.83738 4.38803 15.1048 10.3058 0.801312 7.70265
50 3 10.7581 10.8118 10.1843 1.45963 1.58698 4.77507
51 3 5.71024 6.5524 10.3278 -5.84645 -5.08626 -1.96412
52 3 2.83458 10.7434 10.088 -3.48329 -1.32058 4.61064
53 3 8.09191 11.8049 12.683 -3.02842 0.226079 1.89253
54 3 5.54496 8.41424 15.0559 0.200051 3.94815 -4.91769
55 3 9.63406 2.88673 11.0531 5.60151 1.95217 6.10557
56 3 4.81348 12.9914 11.1213 3.00371 3.1298 3.39015
57 3 6.49047 6.73132 12.9492 0.0220414 2.54689 -4.11852
58 3 12.5049 1.35344 11.8784 3.21781 3.39435 2.21029
59 3 5.2656 8.78662 11.3201 -9.02028 -6.82577 -1.6063
60 3 4.08059 1.80107 12.6472 0.105673 -0.588693 4.18575
61 3 8.66145 9.33972 12.0133 -6.22207 -0.0812354 -13.5403
62 3 3.05772 7.47574 12.6886 5.43928 -6.13542 -4.69523
63 3 7.97652 1.17283 10.9046 7.82021 4.6835 -10.6729
64 3 2.70395 11.7437 13.7589 0.872369 -4.3938 1.35236
65 3 11.0355 5.1893 14.3443 -14.7723 -4.19768 -4.10706
66 3 2.42135 0.353686 11.5682 -15.0229 10.6239 8.20563
67 3 8.29649 11.9854 15.1869 -8.21937 -0.105136 -6.24298
68 3 1.29599 7.83124 14.3215 -10.7973 3.06476 -1.27795
69 3 12.7082 11.9818 11.9266 4.88035 4.13564 -0.571219
70 3 0.4082 7.75111 10.7239 3.33256 -1.28588 -6.67767
71 3 11.4274 3.9398 12.2379 -0.31154 11.8757 2.44508
72 3 8.65416 6.41378 11.1487 -0.279219 2.87994 -1.40629
73 3 1.43238 9.65186 12.4042 5.39201 -5.57394 -6.1144
74 3 4.64502 5.19648 12.4448 -5.19398 0.0834978 -4.47263
75 3 6.39998 0.585382 14.8539 -6.82808 -12.293 0.68231
76 3 1.661 0.85282 14.632 -0.108217 7.60643 2.07718
77 3 11.738 8.82918 11.8468 -0.767075 -1.05436 6.41786
78 3 1.77282 5.02013 11.4577 4.66659 8.78327 -3.12851
79 3 11.0984 8.59258 15.0972 0.413465 4.6928 3.201
80 3 9.50619 7.04827 13.5339 -0.670502 -7.65528 8.58694
81 3 8.29803 2.31083 15.0774 2.21888 -0.800864 4.97307
82 3 8.48262 8.80496 9.31556 -1.96275 -4.56908 5.44601
83 3 6.77426 2.32702 13.0614 4.74984 -0.936476 3.14364
84 3 1.0666 3.0618 10.1368 -2.3105 -10.8705 -5.5509
85 3 6.65972 4.47802 11.4659 -9.30212 10.5804 -4.78968
86 3 11.0117 6.87184 10.8112 2.35391 -1.89474 -5.40678
87 3 12.1167 13.1157 14.0977 5.85644 -2.27132 -1.23527
88 3 3.50907 9.38712 14.0888 3.55489 1.57083 8.51285
89 3 0.315609 3.40261 13.6403 16.4424 0.0482577 -5.27402
90 3 8.38667 5.27215 14.9385 -1.87235 -3.85682 2.24552
91 3 10.8715 10.7541 13.8994 -10.9035 -1.25804 -2.86096
92 3 10.4018 12.8691 12.2923 -5.01385 0.952187 -4.2836
93 3 3.50625 7.28363 9.98151 -1.13156 11.6993 -2.07941
94 3 7.05579 11.0256 10.7504 3.2915 2.68853 6.47576
95 3 11.5553 2.79067 14.9993 14.0363 -1.99044 3.16604
96 3 5.1234 11.0707 14.9202 5.01985 3.20298 7.63196
97 3 10.1982 0.807069 9.82023 -0.297791 -9.49065 3.66092
98 3 6.66317 9.90318 13.0539 -10.4226 -1.30535 -1.18033
ITEM: TIMESTEP
500000
ITEM: NUMBER OF ATOMS
98
ITEM: BOX BOUNDS pp pp pp
-8.8911966683022925e-03 1.3096573196668459e+01
-7.6514174794493073e-03 1.3153235417479360e+01
9.2127394064100372e+00 1.5381309593589961e+01
ITEM: ATOMS id type x y z vx vy vz
1 1 0.997136 3.86214 11.5869 1.26931 -4.08476 -4.51593
2 1 2.27333 10.8987 10.8143 4.50148 9.56023 -3.49968
3 1 6.46536 4.11173 10.8434 -2.96994 -8.49869 0.450913
4 1 4.78948 7.24331 12.6855 -10.722 -12.6447 -3.42782
5 1 7.51882 6.35311 14.4835 -9.63945 4.14294 -15.4722
6 1 12.2045 8.55422 10.1159 7.78779 11.0565 -3.04293
7 1 10.0142 7.75655 12.4435 0.349473 18.4375 0.722724
8 1 4.30593 1.69962 14.3877 0.813635 7.11143 14.2921
9 1 6.67748 12.1446 9.48727 -19.9143 -8.66339 0.134482
10 1 4.64394 11.9666 12.6543 -16.802 4.77741 2.58722
11 1 13.3892 8.55293 13.4447 0.4804 4.72266 -17.3646
12 1 1.72897 6.75599 9.85817 9.591 0.289927 4.98554
13 1 9.47511 7.77086 9.6119 10.1376 5.93079 5.33212
14 1 10.2795 4.26942 11.0206 -1.45248 -8.96221 -3.35085
15 1 9.51639 13.2554 13.6686 -4.55533 2.51291 10.3418
16 1 10.418 10.1414 11.7273 -20.7215 -4.21869 5.76356
17 1 6.70208 9.19354 10.8349 4.07119 -1.63051 3.47081
18 1 9.52296 4.7387 13.6438 6.77226 -3.29748 -4.45584
19 1 2.29105 6.23594 13.0598 -8.27139 -4.11793 5.17815
20 1 12.4101 5.66641 15.275 -4.27 7.5256 -2.26779
21 1 3.77334 4.82054 14.752 9.06516 7.60451 -5.06212
22 1 7.08899 1.07408 12.5546 -1.82524 -1.14035 5.90125
23 1 0.381623 1.18063 10.1913 4.4295 14.1194 6.21434
24 1 6.90417 8.94071 14.1434 -1.59716 -8.73782 -3.41566
25 1 0.862837 0.912262 13.1396 -2.84385 -11.5492 1.31106
26 1 0.511155 11.2411 15.0566 -1.41106 10.4481 -1.41255
27 1 10.0486 12.9135 10.8399 0.363257 3.35614 -7.1125
28 1 11.3689 2.94959 14.9438 -4.67286 -15.7897 -14.1825
29 2 3.23631 1.22429 11.4855 0.490036 5.81606 -13.9867
30 2 11.3376 1.87949 12.3806 6.53345 9.13388 -5.48683
31 2 8.55779 1.68425 9.5524 10.3328 6.46493 11.1933
32 2 3.17174 9.38952 13.7376 2.92773 5.53293 -1.12753
33 2 8.19334 6.12584 11.3136 -0.841147 18.9065 7.77577
34 2 3.7626 4.62749 11.5396 10.1528 1.20568 8.01997
35 2 3.80233 12.6184 9.38691 3.2658 4.58952 -11.1776
36 2 12.4682 6.34714 12.3385 -5.81659 11.6438 -6.61257
37 2 4.54703 7.95026 9.65368 -7.63286 0.458633 -10.1436
38 2 1.67413 3.53874 14.6303 -7.0711 -3.43864 0.483739
39 2 12.7755 11.337 11.905 -12.5933 -7.9944 -0.0934644
40 2 10.6828 10.3172 14.6471 -3.4153 -6.1687 -5.94124
41 2 6.97319 3.32966 13.7476 -2.1976 1.61003 0.283342
42 2 7.30517 11.5993 12.3376 4.31781 -11.3099 8.21852
43 3 3.57059 2.81243 11.6029 0.41674 6.4042 13.6636
44 3 11.4346 6.38307 13.6281 -6.12994 -4.6564 -4.68626
45 3 0.123969 7.2206 9.40109 -1.61343 -4.93276 6.97121
46 3 5.77554 3.16688 14.6233 0.7121 -1.7819 -7.32734
47 3 1.89156 5.235 14.4905 5.60096 5.70303 -1.8268
48 3 7.65889 5.85978 10.0485 -0.432207 3.09244 4.12551
49 3 3.00549 2.94501 14.2236 5.65758 -2.95639 4.71586
50 3 10.4351 9.48479 9.92808 1.93188 11.6101 0.221642
51 3 4.62633 4.69871 10.3493 -5.72268 0.776906 4.72876
52 3 1.61186 9.30745 14.1211 10.9899 -0.579452 -0.547095
53 3 7.78134 12.5863 13.5942 3.2013 8.53772 3.33472
54 3 5.93518 7.52733 14.8995 2.0674 4.42924 -6.25848
55 3 8.77042 3.06571 10.3197 -9.93716 -7.65082 2.84132
56 3 6.69007 3.08956 12.2406 7.07544 -0.0383704 -2.86739
57 3 8.76115 7.70717 11.2331 3.9723 -21.0479 -7.33662
58 3 11.2533 11.7603 11.5446 0.412243 -3.19259 -4.59738
59 3 5.2158 8.15034 11.0136 10.5774 0.865335 -11.9483
60 3 4.04875 0.621638 12.5804 -4.92116 -9.60883 7.71455
61 3 10.149 11.821 14.7404 7.05005 4.61882 -4.59637
62 3 3.96111 9.41778 15.0393 -3.78822 1.84331 -1.26545
63 3 10.112 1.02171 12.1205 12.183 -3.98243 6.05241
64 3 2.5311 12.3571 14.7095 1.89931 3.92219 2.13544
65 3 11.1314 4.45524 9.3893 -5.21067 2.52919 -0.677476
66 3 3.85808 1.08334 9.86037 3.95976 8.90975 16.5496
67 3 8.55809 11.4921 11.4068 -1.51391 0.296261 0.373965
68 3 3.13025 8.03335 12.9922 4.04334 2.24553 -4.60291
69 3 0.635091 11.628 10.6732 -11.3471 -5.80799 6.89811
70 3 0.761725 6.95752 12.5895 11.8429 -2.70739 -5.45096
71 3 10.709 3.2442 12.7806 -3.34548 1.21115 8.89203
72 3 8.80316 7.5227 14.3266 9.63315 -5.59294 0.159191
73 3 3.59162 10.444 12.7322 1.31178 -5.25886 -13.1255
74 3 2.42616 5.19334 11.3436 -2.18713 -2.68472 2.05086
75 3 8.03566 2.06259 14.0845 0.913032 -4.79616 1.07553
76 3 1.75669 1.06395 11.6595 -1.10352 -21.016 -1.48697
77 3 11.495 7.14005 11.3293 3.23974 0.899363 1.03267
78 3 1.09115 3.02651 9.7627 -3.71034 6.82332 1.48423
79 3 10.2212 9.49824 13.4261 -2.07076 0.0602748 -2.08036
80 3 9.39524 5.3004 11.8867 0.156149 4.08755 -3.08033
81 3 7.81242 0.55124 10.1812 -15.7936 6.10337 -3.66308
82 3 6.80198 10.0773 9.36695 -8.10896 4.42525 6.88721
83 3 7.84106 4.48064 14.052 -6.61975 -0.142242 -6.50207
84 3 0.763127 3.51015 13.3435 -5.35628 5.27141 -3.18751
85 3 4.29274 5.44501 12.786 -2.7649 -4.46693 1.53888
86 3 12.361 4.99496 11.5536 2.2581 -5.94733 -0.350086
87 3 0.258164 12.2573 12.975 5.27623 -0.131055 12.0773
88 3 5.13239 12.4751 14.6614 4.46622 6.51876 -3.88431
89 3 12.1859 1.50314 11.1535 -8.15741 -6.05094 -0.916837
90 3 6.89023 6.25964 12.3274 -1.80323 -10.1179 -0.160897
91 3 12.2572 10.211 14.5236 -2.88025 14.5639 -1.54102
92 3 12.7141 9.61497 11.9058 -1.65243 4.49927 -0.378904
93 3 3.52288 6.96504 9.19452 11.2973 -10.206 -0.615533
94 3 6.80877 10.1774 12.6623 2.14284 7.59183 4.45166
95 3 12.3011 1.52726 13.7308 -1.68718 -2.05166 -3.00364
96 3 3.72363 11.9379 10.757 -5.59334 6.91365 8.77719
97 3 9.97533 1.14368 15.4026 -2.87931 -2.14043 -1.99035
98 3 6.21961 12.5475 11.6798 11.7877 -9.16892 -1.97661
ITEM: TIMESTEP
520000
ITEM: NUMBER OF ATOMS
98
ITEM: BOX BOUNDS pp pp pp
-8.8911966683022925e-03 1.3096573196668459e+01
-7.6514174794493073e-03 1.3153235417479360e+01
9.2127394064100372e+00 1.5381309593589961e+01
ITEM: ATOMS id type x y z vx vy vz
1 1 1.93217 1.48284 10.0861 -1.2959 -11.6481 -7.04849
2 1 6.66416 9.27255 13.5889 22.8848 -2.10492 15.9859
3 1 6.11799 4.80287 10.093 19.6396 -9.76262 -11.2456
4 1 6.81527 5.72735 13.5772 0.302518 7.87151 -2.98032
5 1 4.04058 4.32587 14.7213 1.04668 1.60833 4.11719
6 1 -0.11977 8.754 11.5566 4.49571 21.6116 9.29127
7 1 9.68468 7.74927 13.7329 -11.1861 8.30528 -4.11317
8 1 8.27165 1.65775 13.2147 -0.555396 12.4518 -13.5789
9 1 5.19873 0.784742 10.7308 3.27443 -1.38844 3.60098
10 1 2.3294 12.3526 12.5774 -0.218893 0.973674 -10.7672
11 1 0.491888 8.93551 14.2784 -10.8399 8.59778 -19.0929
12 1 0.658685 3.86397 11.2501 5.59569 -9.47328 17.3138
13 1 11.9307 7.66879 9.50998 2.73805 5.17635 5.99566
14 1 10.7764 4.53328 14.8251 1.73766 9.02131 -0.883726
15 1 10.2095 12.115 12.4324 -7.40863 -5.1592 -7.01866
16 1 9.96119 9.31359 11.271 -4.74697 3.69517 6.03018
17 1 5.52074 11.1495 9.98881 12.0218 11.6688 -15.3849
18 1 8.25368 11.5158 14.7634 -5.1581 -13.1347 2.90948
19 1 2.45097 6.86217 13.3235 3.4963 -10.1852 19.9844
20 1 1.26426 6.03161 9.80153 -8.89562 18.1332 -6.24925
21 1 4.97164 12.6855 13.3189 0.132117 4.46586 0.824088
22 1 4.67521 7.41546 11.7556 6.30537 -5.72345 -10.3021
23 1 2.39625 8.81347 10.2955 -11.8892 -0.50886 -4.92592
24 1 7.71917 9.12962 9.74518 -10.6553 4.34046 -1.08082
25 1 0.400654 1.76174 13.189 -11.2257 -3.8367 -0.3069
26 1 12.7652 12.4731 14.2284 2.97852 -13.1779 -7.22312
27 1 11.3855 1.42167 10.0254 5.67292 -1.72285 11.3814
28 1 10.5304 4.21901 11.7115 9.57269 -11.9855 -8.58961
29 2 3.29473 2.11786 13.1792 -8.09713 2.4667 4.38072
30 2 11.068 1.91087 13.2255 -3.81371 -17.0118 8.87359
31 2 8.94968 2.41662 10.0226 -3.8216 0.487553 19.0753
32 2 3.38021 9.64301 13.2237 0.365913 8.18177 -2.73759
33 2 8.24065 6.48122 10.9298 -1.77671 -1.07546 12.7779
34 2 3.49804 4.64307 11.6582 -20.5315 1.84401 -0.0285858
35 2 3.12585 12.1299 9.41447 -7.85455 3.20447 7.95095
36 2 12.0769 6.6944 12.642 -0.22435 4.02499 -7.06963
37 2 4.44074 7.60245 15.2053 -1.90239 -1.93768 8.00983
38 2 0.74608 3.99641 14.8251 6.43102 -8.59966 -0.438792
39 2 12.8214 11.8489 11.2766 6.09175 5.55659 -8.60386
40 2 10.9383 9.96834 14.1457 -8.7416 -5.49713 -6.34417
41 2 6.40691 2.68753 14.7624 -3.2246 -13.8415 3.4204
42 2 7.63772 11.399 11.5791 6.3175 8.63233 -1.57194
43 3 3.89979 3.46747 12.6618 -8.14667 3.75244 -0.88858
44 3 11.1082 6.65761 13.9311 8.52523 -3.91067 -1.22956
45 3 0.557219 7.82763 9.93609 -11.6061 -6.85043 -1.16455
46 3 6.1239 2.34 9.98083 2.30755 0.880814 -0.834704
47 3 2.15798 4.61559 14.8061 5.76957 3.20065 1.39155
48 3 7.75802 5.40615 9.83493 6.86552 10.8608 11.5909
49 3 3.70617 2.15774 14.5696 6.88549 -5.58586 -14.6324
50 3 11.1682 9.25934 9.28952 -4.32181 10.558 -3.24876
51 3 4.3407 4.32856 10.4948 0.139787 -3.07213 3.48072
52 3 1.91613 9.81302 14.0143 -0.237145 6.10383 7.34983
53 3 6.55107 12.4247 10.8688 7.92665 2.39503 1.4768
54 3 4.99662 6.34339 14.6699 4.01329 -2.89033 0.127414
55 3 8.3956 2.71759 11.4453 -0.281126 -0.238439 6.08745
56 3 6.44889 1.62974 13.7328 2.75862 2.48361 1.83553
57 3 8.68109 7.87912 10.5842 2.57037 6.60688 0.546922
58 3 11.3152 11.2436 11.6883 9.80733 -3.69384 -4.09079
59 3 5.077 8.21344 10.2226 -4.63991 -8.36449 2.06716
60 3 4.10608 0.806122 12.6091 2.73596 -5.11396 -13.1162
61 3 10.547 11.368 14.1622 -0.207994 -1.05421 1.56151
62 3 4.53492 8.66573 13.948 1.31155 4.36039 3.69818
63 3 9.93463 0.732027 13.1754 1.73122 -6.2023 -0.986556
64 3 2.20389 12.7861 14.3908 -4.71395 -1.92747 3.41223
65 3 12.8085 5.15805 15.2873 1.95409 2.24146 -3.73976
66 3 2.90858 13.016 10.6094 -7.00865 -1.8766 2.17231
67 3 8.70101 10.9246 10.629 -0.0135576 -7.26086 -2.52026
68 3 3.04209 8.57203 12.045 0.311405 -0.747244 4.12388
69 3 12.8505 12.8988 10.1499 3.41885 -7.05854 -5.62407
70 3 0.368755 7.39666 13.0639 9.32027 -5.51566 -6.08478
71 3 10.3304 3.28992 13.2057 5.65645 5.07687 11.8809
72 3 7.69212 7.89888 14.3689 -0.781164 -0.10018 -4.31375
73 3 3.68597 11.0761 12.7776 3.37059 7.23413 -6.5247
74 3 1.97668 5.20308 11.2059 -2.59762 -0.403388 -12.7788
75 3 8.18411 2.90215 14.8017 -10.0299 4.71154 2.12378
76 3 1.96955 1.68987 12.2977 -4.01007 0.0521045 -8.56505
77 3 11.4126 7.76857 11.5684 2.02746 9.82366 -0.691163
78 3 0.75586 2.86793 9.75001 -0.925743 -16.3802 -3.10186
79 3 9.79328 9.29694 13.1779 -0.382145 5.68134 -4.89233
80 3 9.37509 5.88587 11.8229 -4.26072 -1.3719 -2.08198
81 3 9.65964 1.15739 9.91945 -9.70993 -4.73015 1.84192
82 3 6.71355 10.498 15.0335 4.2701 -5.22619 -5.47559
83 3 5.90696 4.0817 14.5245 6.77973 -0.427447 6.02623
84 3 0.501524 3.53576 13.4348 -0.846707 -1.07 7.36016
85 3 3.97673 5.94363 12.4706 -5.93972 0.656943 8.25368
86 3 12.2434 5.35589 11.8673 -5.28295 2.2724 -4.98409
87 3 0.357734 12.5491 12.5557 4.49213 -5.43098 4.81908
88 3 4.57927 12.6625 15.2358 0.713884 2.77219 -1.66732
89 3 12.0026 2.19339 11.8578 4.95946 6.57045 2.61957
90 3 6.89841 6.54226 11.806 -3.80126 -1.62864 4.31639
91 3 12.3007 9.78555 13.2824 -8.42309 4.48128 -3.39539
92 3 0.779366 10.7252 10.8182 2.93356 0.368095 -2.0526
93 3 2.84992 7.52855 15.1563 -1.22697 -5.58959 7.08308
94 3 8.19309 11.9276 12.9673 0.205265 -3.64416 1.17077
95 3 12.1223 1.32857 14.43 2.5265 5.50694 0.0727772
96 3 3.50621 10.6937 9.75297 -6.43725 2.7022 2.62161
97 3 10.3848 3.56443 10.0319 1.17283 -2.00427 0.476146
98 3 6.79081 10.0973 12.149 1.20673 7.83454 1.40329
ITEM: TIMESTEP
540000
ITEM: NUMBER OF ATOMS
98
ITEM: BOX BOUNDS pp pp pp
-8.8911966683022925e-03 1.3096573196668459e+01
-7.6514174794493073e-03 1.3153235417479360e+01
9.2127394064100372e+00 1.5381309593589961e+01
ITEM: ATOMS id type x y z vx vy vz
1 1 3.51975 1.51448 15.0381 -22.4762 0.156476 -5.00015
2 1 8.26889 9.21529 11.4298 -10.7201 18.0378 21.6523
3 1 4.46911 4.34962 14.6562 8.60806 -4.6424 21.354
4 1 8.85916 6.96161 13.6023 3.40905 -13.7872 0.424737
5 1 2.22897 6.11844 13.0513 4.78179 -12.3803 2.81932
6 1 12.7231 10.6405 14.3653 -2.17113 -1.64331 -3.69567
7 1 11.3779 4.93642 9.381 4.64004 15.5017 -5.86611
8 1 8.62827 4.41468 15.1407 -6.57378 -2.5522 -0.858268
9 1 6.53143 3.65606 10.6824 11.9925 2.07179 11.7542
10 1 3.3208 11.6549 12.7545 -8.2695 -6.64821 -0.43504
11 1 0.851273 0.463643 12.9361 25.2064 9.37532 -4.98918
12 1 10.873 4.9568 12.164 8.05418 -6.11247 -1.09345
13 1 8.78828 3.77838 12.5109 -1.52384 22.3563 16.47
14 1 0.284345 3.92045 11.7347 -5.51601 1.20753 4.80303
15 1 10.1526 12.7746 14.1702 -2.51712 8.6938 -6.01978
16 1 10.9871 9.46159 11.8063 -9.70576 -7.01001 1.61228
17 1 5.86801 13.093 14.6298 15.523 11.7346 0.184901
18 1 7.97795 11.7812 9.84951 -1.59245 5.66081 5.59704
19 1 2.68631 6.57369 10.1935 10.245 -6.35257 -1.09174
20 1 2.00593 8.83202 14.8383 -30.6184 8.92243 1.01534
21 1 5.80704 -0.0295163 10.9795 -24.0368 -4.137 0.501551
22 1 5.66221 6.72812 12.421 -11.7826 6.14731 -5.07421
23 1 1.35443 9.61381 11.4344 -17.8889 1.2298 12.025
24 1 6.83212 9.98508 14.3908 -2.92832 -15.3041 -1.37009
25 1 0.402532 1.18505 9.54797 3.55393 -11.7133 1.9283
26 1 9.85591 0.468011 11.5208 5.61818 -2.35166 -7.09101
27 1 4.96762 10.6593 10.7317 7.23563 -19.4301 13.9808
28 1 12.3145 7.58042 10.2306 1.46964 -8.43183 -2.24962
29 2 2.95633 1.38672 11.8426 -7.49632 10.8438 0.0948043
30 2 11.616 2.54032 13.5872 -5.12948 -13.2995 12.1956
31 2 8.42983 1.78022 9.41793 -7.61896 4.28901 -1.77194
32 2 3.58569 8.85396 12.7941 8.04159 -0.285803 -9.28231
33 2 8.41586 6.11098 10.7214 11.1662 14.1966 -2.59711
34 2 3.74648 4.23189 11.6208 2.77235 8.14124 11.9875
35 2 2.60496 11.7974 9.39011 5.23688 -1.86099 -4.79528
36 2 12.5172 7.25955 13.4251 18.9208 -10.3181 2.5164
37 2 5.35448 8.17911 15.3126 -6.4533 4.76767 11.369
38 2 1.40489 4.47599 14.9668 -1.27505 -17.428 -8.19233
39 2 12.1857 11.8387 11.4994 5.81872 -20.792 19.5074
40 2 9.99972 9.57725 15.0265 5.86808 6.22691 -11.8368
41 2 6.20923 2.53786 13.5191 -11.6742 25.9399 16.0734
42 2 7.51495 11.9921 12.8175 -0.699461 -1.41474 10.7298
43 3 3.47528 2.78169 12.4352 8.14439 4.0154 0.169626
44 3 12.0222 6.57059 14.7683 0.27103 4.59001 -1.98067
45 3 1.22338 8.13911 10.3824 2.03309 4.09292 -16.2816
46 3 5.15071 1.53281 14.0587 0.679121 -16.8487 -1.9167
47 3 0.288842 4.59784 9.78727 -0.974193 -2.51667 -1.72002
48 3 7.89949 6.21297 9.3267 -4.32045 4.85293 -8.46731
49 3 2.60464 0.21836 12.7153 -3.50088 -13.2336 -3.98142
50 3 8.72119 9.80549 9.71601 -0.609173 1.89446 -2.26002
51 3 4.69386 3.83396 10.5283 11.814 7.50017 0.393027
52 3 2.32794 9.89277 12.8608 -4.57683 -4.56812 6.27663
53 3 6.07906 12.5922 12.936 -4.24457 11.5054 -6.11872
54 3 6.42193 8.26072 13.9583 0.907695 -4.99264 11.4433
55 3 7.07813 0.925737 9.54179 -6.2719 3.78748 1.32018
56 3 6.48648 2.53707 12.0909 -2.0589 -5.72126 -3.89066
57 3 8.46882 7.14918 11.7931 -6.85564 13.6518 2.74452
58 3 10.6291 11.9088 11.9374 -2.47185 -0.216147 5.65804
59 3 5.82732 9.48917 9.76848 3.1581 -6.32362 -11.5953
60 3 4.19831 0.992087 10.9071 -3.86112 10.8456 -8.36699
61 3 10.6753 10.9912 14.6155 -5.66734 1.56861 -1.46
62 3 3.86584 8.63438 14.6234 -3.66365 -0.555574 -0.727364
63 3 10.5827 1.16554 13.1308 -12.1198 -2.42283 -4.19087
64 3 3.86227 11.9533 14.4631 -6.37719 7.0027 13.1169
65 3 0.912554 4.55752 13.4215 -1.51654 2.91643 -4.34368
66 3 1.98768 0.101255 9.28444 -4.27143 11.299 -3.3132
67 3 7.20045 10.4884 12.5716 -5.43362 -0.629817 -7.30434
68 3 3.50927 7.5064 12.1968 -4.53664 6.84351 5.66849
69 3 12.5517 12.726 10.1166 -4.83359 10.0641 -0.721013
70 3 11.9688 8.72604 13.2622 5.36059 -8.95038 -3.06872
71 3 11.1459 3.44986 14.6381 6.05368 -12.2374 7.49485
72 3 9.51678 4.98591 13.5633 2.94676 -4.22549 -2.8581
73 3 4.71323 9.88616 12.5792 3.79933 5.667 -2.78424
74 3 2.57056 5.0111 11.1559 1.67231 0.133811 3.78883
75 3 8.346 2.49709 14.1221 14.9476 3.39592 3.31897
76 3 1.32975 1.69141 11.4728 -8.3588 -0.643944 2.86753
77 3 12.0396 6.45253 12.1484 3.24116 3.87455 6.23099
78 3 2.2916 3.14897 15.1475 4.41269 -8.6625 6.15904
79 3 9.56525 8.7273 13.7423 9.40173 -7.534 -6.08376
80 3 9.90552 5.23644 10.5745 4.5854 -5.12012 -12.5191
81 3 9.56205 0.722639 9.66908 -10.6247 12.3569 -2.92948
82 3 6.27137 11.7864 9.80122 4.51436 -8.24132 -3.69139
83 3 6.38249 3.96121 14.2934 6.86034 0.255334 -6.75002
84 3 2.38833 5.73694 14.9445 8.30396 -9.64612 -4.33357
85 3 4.59764 5.18021 12.8167 3.53757 0.236372 2.69646
86 3 0.89794 7.58699 13.5409 4.50097 6.58412 -0.992311
87 3 13.0697 12.214 12.6784 2.37609 12.4804 -0.765284
88 3 3.13968 11.1209 10.6424 -3.52845 -1.55825 3.4839
89 3 11.6381 3.2286 12.1975 3.23441 -13.3182 -8.89229
90 3 7.38105 5.20586 11.479 5.48962 0.0497794 1.62768
91 3 10.9384 8.76647 9.82308 -1.90167 -0.957024 -1.52943
92 3 12.5025 10.2921 10.9158 7.84884 -2.50344 -5.39985
93 3 5.07487 6.8361 9.96463 6.52545 2.45602 1.55928
94 3 8.09292 12.5666 11.577 6.39053 5.42947 17.1664
95 3 12.9599 1.93528 14.2034 -13.9312 -1.00035 1.52335
96 3 1.40874 10.7337 15.2235 -2.72747 -4.4205 6.44759
97 3 8.55816 3.1239 10.6042 -4.89002 -9.48702 -5.16759
98 3 8.3186 12.2222 14.184 0.35649 -2.92203 -2.61557
ITEM: TIMESTEP
560000
ITEM: NUMBER OF ATOMS
98
ITEM: BOX BOUNDS pp pp pp
-8.8911966683022925e-03 1.3096573196668459e+01
-7.6514174794493073e-03 1.3153235417479360e+01
9.2127394064100372e+00 1.5381309593589961e+01
ITEM: ATOMS id type x y z vx vy vz
1 1 2.46168 1.81618 15.0595 1.05538 -4.01605 -8.19248
2 1 6.99109 11.7092 9.42603 -16.1609 4.39609 -7.6654
3 1 8.33487 3.6477 14.1114 9.92087 -4.17064 -2.72922
4 1 6.79999 6.96258 13.0442 -6.28807 2.24888 -5.81264
5 1 1.43202 6.24441 11.249 7.58732 0.0607505 -14.0545
6 1 9.78895 11.9517 11.188 -14.6351 10.1422 6.56816
7 1 10.5654 4.23126 9.89052 24.7894 2.57262 -2.39123
8 1 6.89303 1.01209 12.456 -7.95027 -6.21529 -1.45729
9 1 8.46288 9.35598 9.9869 12.0574 15.7388 8.46676
10 1 4.22684 10.8469 10.0427 5.46603 -1.86827 3.67906
11 1 11.1626 5.15372 13.2146 -11.3705 11.5785 22.7204
12 1 9.35575 6.68249 15.0015 -1.46594 10.4731 4.23926
13 1 2.46481 5.70306 14.0936 -15.3409 3.15032 15.2083
14 1 0.420078 2.23864 11.8971 -10.7646 -1.25365 24.9763
15 1 5.13562 12.4421 13.4055 -4.06504 -12.7001 0.855568
16 1 10.0014 9.01317 13.149 -0.346056 -12.3409 0.76797
17 1 4.14332 7.65521 11.5661 5.1092 -10.3286 4.23263
18 1 6.08001 3.38227 10.5175 0.438351 0.519881 1.98209
19 1 6.35143 6.1925 9.83382 -15.6797 19.8505 7.7564
20 1 1.14398 9.63218 10.0037 -6.0726 5.03797 -7.40453
21 1 5.48878 0.8762 9.40085 -2.27057 8.08263 -15.2884
22 1 12.4808 6.9498 9.83648 -0.468356 -0.401458 5.52122
23 1 1.97191 8.59769 13.0274 -8.75214 -6.79939 15.8277
24 1 2.41794 12.7617 11.3699 -1.12641 10.7034 -1.55138
25 1 12.1432 12.7438 14.5179 0.648909 2.57665 3.98769
26 1 9.74873 12.5638 13.5445 5.1689 5.15812 2.56846
27 1 10.9943 1.72571 9.89932 7.81519 20.478 -9.24186
28 1 12.3036 10.2192 12.1773 -2.75428 10.3791 -9.74371
29 2 4.03588 1.54328 12.0274 -12.8878 1.47907 -0.183825
30 2 10.3681 1.7079 12.7158 -0.10818 3.23719 8.1583
31 2 8.10368 0.972234 9.60617 -9.12082 -8.55655 3.67596
32 2 6.18762 9.70236 11.4546 1.57463 -4.0408 -0.304115
33 2 8.69433 6.33156 11.6039 -3.15285 -1.11462 -6.54314
34 2 4.25408 4.62209 12.1355 0.410814 -5.9387 3.42162
35 2 2.04124 11.8724 14.3428 -2.65657 -5.31424 1.00387
36 2 12.61 7.24044 13.3098 11.5252 -7.17082 1.75228
37 2 4.46579 7.88272 14.7068 3.09291 -3.15298 -2.12302
38 2 0.444686 3.88235 9.4502 0.464143 -8.3123 -3.99822
39 2 12.7526 12.5264 11.3489 -0.259284 -17.778 6.73111
40 2 11.2208 9.56722 9.53958 -6.19585 -11.6951 -0.433654
41 2 5.87854 3.55735 14.2526 16.9475 -6.93865 -1.87831
42 2 7.8034 10.5304 13.3592 -20.0064 -3.96448 5.22218
43 3 4.79282 2.9215 11.65 5.42149 -1.56905 -13.1495
44 3 11.6875 6.55236 14.4226 4.7804 -2.90449 -4.39365
45 3 2.0543 8.13831 11.4298 10.8544 -1.43332 -2.18002
46 3 5.19418 2.56794 15.2642 5.58553 -3.79243 -1.11014
47 3 12.1017 3.271 9.4174 6.79975 5.5137 -4.6655
48 3 8.12865 6.98555 10.3529 0.173885 6.40749 -5.97986
49 3 5.12691 0.63951 12.3453 0.647035 -1.9398 -6.96182
50 3 10.5785 10.2641 10.7477 6.49333 -9.80073 6.08293
51 3 5.38267 5.30425 11.2835 -3.34105 -1.96128 -3.48834
52 3 4.81587 10.3057 11.627 -0.236556 -7.35631 3.88833
53 3 8.04156 10.279 14.7868 -4.59947 2.38854 -0.207216
54 3 6.01464 7.18157 14.5773 -7.6537 -5.50961 10.6465
55 3 6.86273 1.31419 10.4615 -1.9412 5.54812 -4.56824
56 3 6.70014 3.29204 13.0428 1.89499 3.82336 -4.10927
57 3 8.92269 7.59337 12.6115 6.36136 1.25857 -7.41135
58 3 0.399567 11.085 11.0335 13.1344 -7.88737 5.34031
59 3 4.60692 9.33798 15.2173 -2.09252 0.812142 7.37317
60 3 3.35214 1.10005 10.5877 1.78376 -3.22166 -1.64583
61 3 11.33 10.3674 14.5311 4.59642 -3.54053 1.14348
62 3 3.85402 7.63926 13.3011 -8.33204 -1.13342 -1.89118
63 3 9.48219 0.528085 12.0199 5.67377 3.55921 16.6494
64 3 2.97412 12.0936 13.1451 -0.174274 5.76136 -7.63263
65 3 0.997394 3.56202 14.3107 -2.9421 11.5914 1.97055
66 3 1.08611 13.1923 14.3343 -1.90526 5.29041 6.3239
67 3 7.06068 9.36147 12.7993 1.47642 -8.77507 2.84223
68 3 6.06246 8.10067 11.2378 3.67084 6.74442 12.8606
69 3 11.9067 -0.398795 10.0597 -8.58834 -5.90072 4.53482
70 3 13.0801 6.08368 12.2426 0.940014 10.6829 -3.39907
71 3 9.51087 2.75917 12.8419 0.475644 1.11914 -6.04164
72 3 9.79239 4.72296 14.6124 -0.265192 1.57729 -1.87513
73 3 7.10901 10.5305 10.7324 5.47462 3.52763 -1.95941
74 3 3.01532 5.49241 12.1254 -0.388018 1.44735 -1.148
75 3 7.43093 0.941238 14.4228 -9.07368 -9.53804 -1.99243
76 3 3.10744 1.6057 13.2638 2.24561 -5.27593 -5.47225
77 3 0.746482 7.69725 14.0322 -0.0865899 -3.34599 -6.26937
78 3 1.20029 3.39704 10.7153 12.5887 -1.20464 0.27208
79 3 9.94677 8.67309 15.3075 6.39785 -5.57909 -5.52708
80 3 10.1358 5.82388 11.3154 5.64526 0.477219 -6.12504
81 3 8.74657 12.6711 9.68389 -5.46479 4.02784 8.74397
82 3 5.20437 12.3509 9.03469 0.311204 0.0455422 -5.23878
83 3 6.76822 4.51663 15.1232 2.44587 -4.49953 3.43587
84 3 0.681543 5.39413 9.77401 -9.58628 4.35173 3.86123
85 3 4.43212 4.63188 13.8656 -2.61757 1.70054 -2.59419
86 3 11.9618 8.46139 12.5674 -0.453196 -3.27797 -3.14259
87 3 11.8201 12.1977 12.7482 -4.02013 -7.4968 7.93243
88 3 2.62902 12.1599 9.7591 -9.70977 9.23788 -3.3446
89 3 11.5492 2.07821 11.7502 -17.966 -3.32965 3.90895
90 3 7.92909 5.39035 12.4425 0.310765 -0.0491332 1.32872
91 3 12.6087 8.88311 9.91463 7.73671 2.77406 5.38246
92 3 0.763726 0.391311 11.6611 -0.586497 -3.37286 1.80107
93 3 3.60314 7.04605 9.54401 2.01186 6.00424 -1.99436
94 3 7.02707 11.858 12.9484 -0.81981 0.255499 1.82963
95 3 10.9171 0.986553 13.969 -3.5067 5.61583 -1.56783
96 3 1.52562 10.3406 14.3269 4.49632 8.53743 -7.63679
97 3 8.98859 2.20122 9.62854 -7.50838 6.36442 -0.105528
98 3 9.28521 10.808 12.7638 9.70176 -5.49449 -6.21425
ITEM: TIMESTEP
580000
ITEM: NUMBER OF ATOMS
98
ITEM: BOX BOUNDS pp pp pp
-8.8911966683022925e-03 1.3096573196668459e+01
-7.6514174794493073e-03 1.3153235417479360e+01
9.2127394064100372e+00 1.5381309593589961e+01
ITEM: ATOMS id type x y z vx vy vz
1 1 2.97729 0.456506 14.5595 1.78488 9.2905 -6.96078
2 1 11.7173 12.8213 13.2621 10.3276 10.9066 -11.0756
3 1 8.77171 3.67008 14.4206 2.82634 6.45371 -5.62902
4 1 5.18102 10.9293 9.47102 8.3839 -8.27104 8.95753
5 1 1.7662 2.37007 12.7072 12.8287 -5.32473 3.39564
6 1 6.87879 4.23341 11.4173 -4.62285 13.8556 -3.60065
7 1 12.4823 9.56538 14.0283 12.28 6.53637 10.9288
8 1 8.51449 5.92371 15.4262 -9.30462 -12.1523 13.1847
9 1 7.83861 9.55681 13.5311 -3.86421 -10.2889 -14.723
10 1 2.56015 11.0228 9.97914 5.97715 7.27557 9.387
11 1 11.7156 4.9761 14.3033 8.18254 -6.81794 -2.31421
12 1 4.60317 6.59647 12.6933 7.35189 -8.16171 -4.11058
13 1 1.71756 6.68975 10.3685 3.13133 8.31109 3.78124
14 1 0.0188908 0.741194 11.1658 7.01216 -18.3787 4.2173
15 1 7.83249 11.5652 10.7205 1.64056 4.10582 4.42776
16 1 10.3388 10.301 12.4925 -1.36423 3.04121 4.04114
17 1 3.40154 5.51745 14.6589 -3.93731 0.274961 9.09759
18 1 5.52924 1.26277 9.67652 2.58953 20.3912 0.593133
19 1 7.08406 7.92391 10.5728 -2.738 8.41016 8.90673
20 1 1.60253 7.18575 13.0997 14.7037 2.91073 10.0169
21 1 7.5376 1.85627 12.5023 -1.6533 -0.399168 -12.401
22 1 11.1633 4.82324 10.9855 -13.9328 -6.96984 11.6969
23 1 3.2006 8.85153 11.4388 -11.9371 -9.90103 13.1467
24 1 0.144834 9.79154 11.6079 -4.54475 -20.9223 11.4771
25 1 11.1499 1.2021 9.48517 -15.6755 -10.3618 -5.19791
26 1 9.86912 11.5758 15.3859 -10.8228 -2.89371 2.41757
27 1 5.40499 12.5125 12.8643 -2.20354 15.916 -14.694
28 1 11.7848 7.2991 12.3321 -7.71535 13.9172 5.50484
29 2 4.09119 1.19046 11.5059 -4.50263 -2.09938 -0.0990704
30 2 11.0052 2.42491 12.6991 -7.79595 18.3672 -1.29095
31 2 8.50743 1.25398 9.2339 1.10148 -0.310054 0.0601156
32 2 5.67777 10.2064 11.9929 -3.21345 18.2287 -2.76771
33 2 8.74355 6.32947 12.2513 -12.2275 -6.73183 -7.78041
34 2 3.96617 4.34291 11.2624 3.91759 5.38898 -1.95562
35 2 1.67179 11.5945 13.1065 -5.61058 -7.46825 6.17598
36 2 12.4037 7.40122 9.34641 -9.53897 -2.04934 -4.74336
37 2 4.23078 8.07012 15.1158 -0.168598 -0.812239 0.479269
38 2 1.39546 3.45062 9.60269 9.13099 -6.95599 -11.2753
39 2 12.4616 11.6607 9.92281 7.36498 -14.7691 -2.00837
40 2 9.60424 8.86346 15.5496 -1.69667 5.16047 1.85553
41 2 6.06242 3.85632 14.2885 4.68208 3.52786 2.18514
42 2 8.22786 12.3243 13.6192 -12.4858 3.69483 3.95994
43 3 4.31087 2.9628 11.4063 3.45373 -0.885624 1.48733
44 3 12.5488 6.66784 14.1481 -3.10395 2.17493 6.41657
45 3 1.48607 8.41879 11.4963 5.57449 -7.84091 0.0721642
46 3 5.16123 2.66073 14.5603 -3.67192 2.87355 -6.3042
47 3 3.08123 4.39937 9.95253 1.51445 6.12451 -1.73523
48 3 7.94816 5.77796 11.0213 0.303623 1.67083 -6.28264
49 3 5.58472 0.884063 11.5671 4.24651 4.28024 -3.3869
50 3 9.52209 9.89935 10.4633 -12.2581 2.08385 -1.85027
51 3 5.13587 5.40558 11.3351 5.60312 -5.83103 -7.47091
52 3 4.82186 11.3124 11.2628 7.67718 -0.373184 -1.61988
53 3 7.7022 11.442 14.6566 9.38507 2.75054 -4.27405
54 3 5.61502 7.92484 15.2325 8.94096 11.8418 2.8676
55 3 7.52175 1.57186 10.453 8.37587 -1.11952 6.18135
56 3 6.81677 3.44085 12.8996 7.3089 1.28668 -11.0751
57 3 10.4815 5.9519 12.1898 0.249431 -1.59571 -1.86368
58 3 0.678534 10.8309 10.2385 -2.65587 2.60996 -6.41497
59 3 3.56213 9.47241 9.42742 14.4321 3.33679 6.14954
60 3 3.4978 0.601037 10.2157 -9.83795 8.29719 -6.88171
61 3 9.64619 9.46997 14.1303 3.68936 8.16247 6.15663
62 3 3.38143 7.56823 13.7892 -0.686738 -0.204067 0.225365
63 3 11.6799 3.8174 12.7711 8.29941 -0.726369 -0.748076
64 3 2.60515 11.3523 11.8833 -8.59584 -3.30804 0.51796
65 3 0.865215 2.87465 10.9738 3.44826 -5.36807 -6.40483
66 3 0.619835 12.9657 12.5921 2.78784 1.94651 -8.74347
67 3 6.26112 10.253 13.4521 -20.9812 -3.77767 0.196722
68 3 5.04382 8.75963 11.8623 1.61012 0.409418 3.75228
69 3 11.5893 11.1056 14.992 6.681 7.95942 8.92875
70 3 12.6773 6.63994 10.7552 -6.80654 -2.76071 -7.87887
71 3 11.5207 1.33647 13.6804 -13.9574 -9.18895 3.2895
72 3 10.4617 5.33114 15.5699 0.188265 -3.22431 17.1797
73 3 6.80623 10.0776 10.8004 9.24517 -5.15513 -1.86993
74 3 2.73074 5.12856 12.3256 1.94053 -0.791668 -8.24652
75 3 7.97238 0.877258 13.9802 -13.9853 -2.37438 -4.20301
76 3 3.12766 0.670092 12.6493 -4.34272 -3.5446 -8.64148
77 3 11.0308 8.19427 9.34421 1.82701 -2.18409 8.55123
78 3 1.65987 2.33765 14.8035 0.998563 -2.00775 0.89322
79 3 8.37814 8.05842 15.3862 -3.13843 10.1548 7.57063
80 3 8.40508 5.50282 13.6354 -7.81483 -2.59015 6.33924
81 3 9.11943 13.0581 9.6948 -2.85509 -5.34368 8.47732
82 3 5.45137 12.9022 14.5847 -9.82719 -2.56499 0.276959
83 3 7.09676 4.00632 9.2287 4.37658 -2.49035 0.337787
84 3 0.453034 4.57763 9.14564 -0.307551 -10.1117 -4.66733
85 3 5.04557 5.03921 14.1673 10.2657 -5.23009 -3.24168
86 3 0.557299 8.25104 15.2335 2.98993 -4.25186 -5.53673
87 3 11.6289 12.121 11.1733 -3.12338 -2.38795 -5.15364
88 3 2.48789 11.7903 14.3983 -0.486466 -0.0616498 0.352302
89 3 11.6593 2.02315 11.2409 -1.55609 -3.9196 -6.63821
90 3 8.56802 7.80987 12.3823 1.87148 5.27116 8.72012
91 3 11.7426 9.11641 12.4075 -1.26076 1.62488 2.7387
92 3 12.8475 -0.0504039 9.38613 -3.27499 6.79163 -4.16617
93 3 3.62274 6.96062 9.99266 5.94531 -1.46621 3.24573
94 3 7.56386 12.2109 12.3013 5.95554 4.99088 -3.81362
95 3 9.4292 2.61304 12.689 0.0252999 -2.708 5.05299
96 3 0.681498 10.5086 13.4696 -4.96121 -0.258057 -1.2675
97 3 9.60506 2.34552 15.4579 -4.33865 11.5219 4.61318
98 3 9.68074 12.1684 13.3141 7.62453 -12.695 8.05011
ITEM: TIMESTEP
600000
ITEM: NUMBER OF ATOMS
98
ITEM: BOX BOUNDS pp pp pp
-8.8911966683022925e-03 1.3096573196668459e+01
-7.6514174794493073e-03 1.3153235417479360e+01
9.2127394064100372e+00 1.5381309593589961e+01
ITEM: ATOMS id type x y z vx vy vz
1 1 1.6002 0.988786 9.96164 2.47222 5.89869 -6.83076
2 1 9.78915 10.2687 11.3158 -0.146468 1.29812 9.25731
3 1 8.69706 2.66298 13.1761 3.1206 -9.32396 2.52606
4 1 5.83782 12.2324 14.2822 1.5983 2.93529 8.39539
5 1 10.035 6.20893 10.1788 10.6287 -1.20944 7.43168
6 1 7.26389 5.86044 9.30479 -8.43815 -12.6651 11.9019
7 1 7.8956 0.172105 9.55058 7.07037 -14.3271 -21.8424
8 1 10.7821 6.77941 13.3396 5.74449 -11.1651 15.3116
9 1 2.6013 11.8624 9.14715 -12.0232 -10.3666 -26.3715
10 1 1.17232 9.58322 10.8606 11.2862 5.63959 20.3926
11 1 12.605 2.82021 11.1924 4.3122 4.43287 -8.99358
12 1 5.88869 9.81934 9.58451 -4.03563 17.2452 -17.3638
13 1 12.8609 9.98419 13.2503 4.35782 -7.23765 -9.27251
14 1 5.4345 13.0972 11.5934 10.7632 -9.71848 -10.1709
15 1 7.22054 2.29903 10.7715 2.63783 -6.94462 3.8361
16 1 11.5207 8.74687 8.71775 1.32942 -14.9472 -24.8117
17 1 5.84857 4.28618 12.4967 0.142914 -0.511397 -0.257594
18 1 3.1708 1.14595 13.2171 16.7175 14.5284 7.32617
19 1 5.88101 7.33939 13.4566 -23.5685 9.37723 10.3641
20 1 0.245245 7.10992 13.8574 -11.5394 -16.0215 -1.21646
21 1 10.6731 0.396857 15.0065 7.89208 -6.48267 -5.15622
22 1 11.4924 4.41261 14.644 16.6365 8.63881 6.45398
23 1 3.00562 7.28236 12.1851 9.87003 -7.99164 -15.4356
24 1 1.10367 4.20755 12.5158 -11.255 -9.17617 -22.6286
25 1 11.5462 12.8695 11.8231 -0.337664 -4.7084 1.60479
26 1 9.39133 10.8256 14.4543 -6.26993 -8.64642 16.4909
27 1 3.89235 10.0723 11.0105 -12.6771 -13.0664 3.53439
28 1 3.22505 3.44088 14.697 -7.89686 -5.94971 5.03587
29 2 3.59236 2.66003 11.122 2.34485 -8.51587 -9.8467
30 2 0.000358157 1.67927 13.392 4.62385 8.33823 4.62862
31 2 10.061 2.73582 9.76736 -3.24321 13.6863 -2.3561
32 2 6.14866 10.2558 12.5223 5.07735 4.37545 1.18342
33 2 8.07308 5.69003 11.9578 -1.56924 -17.3112 7.01207
34 2 4.38059 5.41003 10.5944 30.3769 2.0269 -1.47464
35 2 1.64427 11.9171 12.3242 1.22958 -6.31137 5.19139
36 2 -0.0280451 6.98323 10.8197 3.11697 -4.16235 -4.66792
37 2 3.13443 8.59798 15.0746 -2.41224 1.42193 5.27172
38 2 1.20654 4.96943 9.57753 18.4467 -0.397186 -11.8172
39 2 12.1608 11.3323 9.83009 16.3272 4.75272 3.98208
40 2 8.74823 8.34862 14.9713 -1.76862 9.37356 8.53304
41 2 5.83094 2.42593 14.1362 7.48326 16.155 -15.7306
42 2 8.00557 12.2794 12.3279 11.7124 -4.54419 -3.02169
43 3 4.74139 3.70404 10.7876 -1.33544 4.77651 4.51184
44 3 11.9529 5.96998 14.1841 4.76061 5.81609 7.53344
45 3 1.07207 6.86536 12.2616 -6.78707 4.13659 -0.515655
46 3 6.92518 2.22558 15.1551 5.74416 2.41149 11.7675
47 3 3.11594 5.0995 9.8209 -3.67718 -0.819848 7.38194
48 3 7.60465 4.55168 11.0617 -8.08664 -2.89412 0.92215
49 3 4.35434 1.28946 11.5213 6.69694 5.58137 -0.506101
50 3 8.42063 9.58849 9.93997 -5.29435 -3.49181 -1.56127
51 3 5.61807 6.0743 9.86172 -2.54424 6.08681 -3.55102
52 3 6.40367 9.85687 14.1419 2.12345 -0.854835 -3.01487
53 3 7.63042 12.462 13.7816 0.138086 9.81568 -2.37243
54 3 4.24028 7.86316 14.3914 20.499 3.31911 -2.25517
55 3 9.09862 2.35751 10.9918 4.8713 0.39508 9.27761
56 3 6.71747 2.59821 12.7646 2.53292 5.5124 -0.902617
57 3 8.62722 6.90246 11.2278 0.371278 3.7734 -0.722988
58 3 0.555442 10.5513 9.48018 7.82667 -3.18959 -13.001
59 3 3.52298 10.1545 15.3202 -1.52507 5.44907 2.72555
60 3 2.75382 2.4366 9.8991 -9.15742 5.67017 4.4228
61 3 7.45185 7.4841 14.7004 8.07337 1.98393 10.4584
62 3 1.8448 8.64846 14.1485 -3.0894 1.4867 6.26207
63 3 12.3378 3.01586 13.6383 -7.27242 -1.12696 -0.66978
64 3 1.96658 12.6993 10.895 0.600489 6.50381 -5.25991
65 3 0.953229 4.10193 10.7755 -1.1328 0.15623 -1.05249
66 3 0.334036 11.3848 12.5746 -4.21382 -3.69298 -4.59837
67 3 5.53877 9.07758 11.7472 -4.21846 -0.693702 2.69346
68 3 5.20402 11.623 12.565 -3.67167 -3.03892 -4.76422
69 3 11.5405 10.8821 14.6688 -2.94436 -1.47882 4.92887
70 3 11.9498 5.99663 10.9704 -2.20214 -9.4265 -8.46927
71 3 1.28995 1.66246 14.2331 0.0210639 -5.73721 6.489
72 3 10.0179 4.31547 9.5596 7.0504 4.82334 3.09733
73 3 7.5735 10.8517 11.9681 -3.15313 11.7681 13.02
74 3 4.18519 5.92469 11.9471 -12.6653 5.4673 -5.10033
75 3 9.47291 2.13954 14.6621 -1.1112 -4.64675 2.11978
76 3 2.91904 3.04007 12.4397 -3.3701 -7.26063 -6.04466
77 3 9.34102 9.2788 13.6662 -1.70153 -3.93322 1.90146
78 3 1.36219 4.33042 14.3783 0.878743 6.41467 2.55415
79 3 9.98721 7.49663 8.99924 -6.66505 -6.14214 -15.3076
80 3 9.39182 5.09055 12.6506 0.476653 -4.65147 7.88144
81 3 9.51502 12.7602 9.58181 2.9416 -2.1654 -24.278
82 3 5.29407 11.9093 9.88366 2.69597 -3.64949 -3.21519
83 3 4.98226 3.74574 14.1957 -1.75306 -6.34992 3.40113
84 3 0.986629 6.56575 9.49699 -4.45554 6.81094 3.35166
85 3 4.90482 1.23704 14.052 -4.6746 7.01981 7.5087
86 3 12.7872 8.38812 10.3782 6.39779 3.19551 5.07092
87 3 11.4961 10.7189 11.1447 -2.42914 2.66427 -0.444894
88 3 2.39571 12.4284 13.6336 -10.5278 1.9433 -12.3201
89 3 0.497878 1.45199 11.9661 -7.311 -8.32595 -0.80169
90 3 6.82726 5.86483 12.9887 -1.44982 -4.57303 -7.42243
91 3 11.9306 8.3584 13.2471 3.31307 -4.06293 -3.54562
92 3 12.2212 12.8857 10.1192 -4.74016 -2.82784 -0.144804
93 3 2.98613 7.99287 10.3598 2.59692 1.26938 -3.12596
94 3 7.1353 0.215403 11.2968 -12.5436 4.34647 13.3978
95 3 11.9314 0.51308 13.3823 -6.87409 -6.57826 -4.60629
96 3 2.42741 10.5473 11.7922 9.91889 -7.64398 3.47797
97 3 11.5814 2.46172 9.8303 -8.87631 3.73002 10.0553
98 3 9.52963 12.2833 11.9495 10.6839 4.67365 4.37494
ITEM: TIMESTEP
620000
ITEM: NUMBER OF ATOMS
98
ITEM: BOX BOUNDS pp pp pp
-8.8911966683022925e-03 1.3096573196668459e+01
-7.6514174794493073e-03 1.3153235417479360e+01
9.2127394064100372e+00 1.5381309593589961e+01
ITEM: ATOMS id type x y z vx vy vz
1 1 1.91514 1.65862 11.2866 -12.5887 10.9915 3.97061
2 1 8.16124 12.0575 13.5768 11.2072 -11.0201 11.2129
3 1 9.87803 0.588609 14.7414 1.84004 -0.219943 0.438098
4 1 0.277903 10.8131 14.1008 -9.96037 15.2631 0.5974
5 1 7.74734 2.11404 11.4406 4.92664 11.6682 -9.92299
6 1 4.19593 5.32884 14.2143 -3.60238 8.475 12.8834
7 1 6.62795 0.212393 9.6818 10.3934 6.74762 -15.2997
8 1 11.2624 5.13141 14.8902 8.12331 20.5802 -4.27352
9 1 2.9783 12.4696 12.9502 9.09609 10.0536 23.4829
10 1 2.75783 9.33774 11.8372 7.38854 5.91285 -22.4041
11 1 8.92848 4.22409 14.0944 1.9592 -17.1268 -6.30229
12 1 6.58236 8.0067 14.5537 -8.08724 16.4031 -7.96551
13 1 11.8561 9.78536 10.514 -4.0849 0.99239 -3.17937
14 1 3.44071 13.2284 9.32793 -8.65746 6.56245 0.247687
15 1 5.69533 0.0689285 12.8665 1.4121 -4.95205 9.92287
16 1 10.477 5.67375 11.816 17.6053 21.1815 -7.33993
17 1 1.02164 7.74205 15.079 -21.0118 -12.4443 -3.53631
18 1 11.307 7.79318 14.1006 -7.20557 8.44652 -8.47366
19 1 6.16401 8.1682 11.4366 17.7484 -8.97702 12.254
20 1 0.239936 3.75919 9.72292 -7.59499 20.5963 10.8774
21 1 8.72741 11.6669 10.522 -1.46662 2.55137 -6.34574
22 1 7.4845 5.59942 10.0271 2.70732 -18.0534 4.39396
23 1 12.0243 12.724 9.59248 0.895075 -2.557 11.1008
24 1 -0.28061 3.7776 12.8422 -7.25151 7.066 7.51231
25 1 12.3099 0.629071 12.7888 19.6731 4.53399 6.0215
26 1 8.62896 9.40128 13.2278 4.93386 -2.76999 -3.36416
27 1 4.82962 10.4863 13.9723 -5.15876 3.04008 4.53349
28 1 3.73665 2.54724 13.985 7.31414 -14.9423 -0.197714
29 2 5.07936 2.18205 10.9457 7.40758 -2.68522 11.8608
30 2 1.16808 1.27012 14.5752 -4.07498 5.69681 9.68122
31 2 10.7115 2.77533 10.2907 -18.4961 -5.27947 -7.88092
32 2 5.82265 11.0888 11.3986 -11.5772 -8.42324 12.3525
33 2 8.22629 6.55254 13.006 -13.5439 -3.46519 0.765694
34 2 4.8529 5.35529 11.0858 -9.76504 13.2124 -18.3759
35 2 0.926772 12.0742 11.0672 -3.28677 -1.12673 17.8588
36 2 12.7838 6.93832 11.125 -10.1143 4.10371 0.272817
37 2 3.46369 8.62089 14.8991 4.91664 -6.68794 6.66461
38 2 2.29669 5.18282 11.684 7.97733 5.37382 6.32809
39 2 11.1023 10.4989 13.2699 -7.24195 2.21906 -4.90059
40 2 8.82601 8.90117 9.97443 4.51047 -7.32531 6.46055
41 2 6.72714 2.70867 14.2696 -7.72226 9.64628 0.977954
42 2 9.65093 0.61614 11.7503 2.69194 6.34673 2.01558
43 3 5.10955 3.71775 11.3486 -3.77985 -10.7808 6.75017
44 3 10.4882 4.91632 13.3492 4.21232 -9.78715 -7.57582
45 3 12.0951 7.07123 12.5063 11.0753 -11.2875 -0.815138
46 3 7.34385 2.98955 9.58953 -2.67722 -1.64202 -9.13643
47 3 3.365 5.24998 10.7317 3.6469 5.58684 -4.18908
48 3 8.44103 5.71109 11.8162 10.9743 -0.589707 -7.67198
49 3 6.20688 1.39429 11.1816 -8.78867 8.17577 2.57944
50 3 8.57677 9.72897 11.2926 -2.8486 -6.82 -5.00762
51 3 5.67248 6.00288 9.97806 4.10968 1.37632 -8.36886
52 3 6.58058 11.6611 13.0445 7.2388 7.26655 3.13611
53 3 10.5487 1.09317 12.9874 8.40204 -0.126317 6.96321
54 3 4.9001 8.95884 14.7488 -9.54587 -8.53544 -0.098793
55 3 9.57905 2.01572 10.8865 -7.45629 8.27604 2.0678
56 3 7.80663 3.00317 13.2064 -4.53179 -14.1224 -2.08009
57 3 9.48411 7.54103 13.2605 13.9676 1.63575 -1.60255
58 3 9.56985 10.7415 13.3309 -5.0743 6.25138 -0.673231
59 3 2.76641 7.13656 14.8055 -6.59166 6.90048 -2.02639
60 3 4.10115 1.75972 9.79116 -11.9795 -8.93478 -2.05754
61 3 7.93059 7.46698 10.0008 0.876279 -12.2505 4.252
62 3 3.07722 9.30163 10.1486 9.21376 -2.28508 -8.70686
63 3 0.883855 1.82247 9.69422 -5.13255 9.15558 3.30707
64 3 13.0311 13.1455 11.3782 2.80562 -4.68762 1.22731
65 3 2.9057 4.98934 13.1497 -3.80876 9.80904 -3.22865
66 3 0.627629 10.9361 10.1728 0.117895 -1.78188 -6.95869
67 3 6.73151 11.6846 10.292 -10.8718 -2.61014 1.26976
68 3 5.31289 9.73507 11.5553 -11.2137 -0.336745 6.39652
69 3 11.1042 10.6356 11.7357 1.12169 4.20549 13.6295
70 3 12.0179 6.04185 10.1949 4.14903 0.620343 -1.40963
71 3 2.62104 0.838999 14.1797 1.78368 13.5684 -3.80301
72 3 10.0128 3.89741 9.57735 -7.50182 -1.22702 -7.48416
73 3 4.56839 11.9686 11.4434 2.31568 -5.59985 -5.26206
74 3 5.33501 6.0471 12.3182 -5.11614 -2.81434 0.488918
75 3 11.4306 1.65421 15.6152 7.97409 -2.79043 9.29335
76 3 4.20324 1.78588 12.2678 5.38838 6.74493 -5.17359
77 3 8.04399 9.64564 14.8546 5.28185 3.27058 -5.85891
78 3 1.41789 3.97823 11.3051 -0.283688 -11.9673 -2.35994
79 3 10.3027 8.50794 9.58728 13.3973 1.64392 -1.60421
80 3 7.71248 5.62545 14.0864 -4.13743 -6.7927 -1.29646
81 3 8.39606 -0.286922 15.1499 11.8512 -5.042 -2.86662
82 3 4.33904 12.0909 14.3538 9.94895 -2.29187 -0.575739
83 3 5.3086 3.58227 14.2228 14.8797 -4.39796 9.03521
84 3 1.20495 6.52499 11.4606 0.00838236 1.31538 -1.25864
85 3 6.40722 1.21788 14.1505 3.87133 -4.03479 -4.75206
86 3 -0.14464 8.17999 10.1328 -2.19103 -10.0109 3.33132
87 3 11.4422 11.8117 14.2212 -2.17726 7.99507 1.8989
88 3 1.25227 11.4025 12.4584 -7.11607 3.50647 -3.30624
89 3 0.714222 2.13688 13.3061 3.7436 -7.13805 -4.41779
90 3 7.30424 7.98794 12.8469 2.87677 4.12712 3.65633
91 3 -0.324385 4.5261 14.4245 -6.96587 5.61801 6.38506
92 3 12.1575 9.47871 13.748 -0.098267 -4.43554 2.10907
93 3 2.63376 9.32239 13.7404 1.67344 -0.627697 7.59002
94 3 8.23846 13.4721 12.02 -12.4422 1.03118 4.57948
95 3 0.346827 13.2047 14.3807 -2.82217 3.99409 -6.29791
96 3 2.33941 12.7839 10.6594 2.30968 2.46433 -5.50667
97 3 11.8534 3.5908 11.1654 -6.17599 1.57007 3.67854
98 3 10.1747 12.7013 10.7486 -1.38493 1.9826 1.28034
ITEM: TIMESTEP
640000
ITEM: NUMBER OF ATOMS
98
ITEM: BOX BOUNDS pp pp pp
-8.8911966683022925e-03 1.3096573196668459e+01
-7.6514174794493073e-03 1.3153235417479360e+01
9.2127394064100372e+00 1.5381309593589961e+01
ITEM: ATOMS id type x y z vx vy vz
1 1 11.9905 12.5379 13.3276 -1.4809 8.99821 -23.2667
2 1 7.42189 0.955941 12.9428 15.0458 -9.31905 -15.5302
3 1 8.57663 0.540818 9.38687 -0.58794 5.87314 19.9083
4 1 2.48432 8.30508 11.4259 2.05506 1.70811 5.38895
5 1 8.19341 3.17475 10.7921 -6.92949 5.06871 16.2164
6 1 11.0726 2.22841 15.1937 22.2627 10.399 -2.04504
7 1 5.88124 11.4752 14.0973 1.66627 -17.0157 17.3851
8 1 9.23031 6.94772 13.8664 -6.85425 2.2878 -7.34238
9 1 3.38288 0.514197 12.093 14.0489 9.1283 -12.9687
10 1 3.12615 12.555 9.66971 -6.92454 -1.1031 -2.42458
11 1 1.21775 9.46408 10.0562 -3.67742 -1.42771 8.12519
12 1 5.72463 3.66954 12.2383 2.44821 15.8566 13.8822
13 1 1.54765 6.52178 14.6369 10.5469 -9.30597 1.65369
14 1 13.1654 2.46433 11.8795 10.4362 -0.8921 0.243812
15 1 10.5671 4.28584 12.4954 -12.9791 -4.55099 3.86555
16 1 0.79158 5.9864 11.107 -1.93191 -12.61 6.15612
17 1 3.93723 6.15136 13.1515 -11.7798 -5.81103 0.107048
18 1 12.2482 8.02132 9.82809 -0.817465 0.726332 -8.71847
19 1 5.28998 7.65848 10.2027 1.17603 -3.35048 1.82977
20 1 2.14651 3.37559 10.5392 22.3118 -7.10968 19.3726
21 1 8.28357 10.8911 14.4219 -0.0693565 -7.13213 -3.46778
22 1 5.73924 5.25891 15.1868 2.13937 5.19072 -5.09751
23 1 2.07462 11.9704 13.8771 4.41948 1.37292 11.1799
24 1 8.29272 5.38973 10.5651 -7.48244 -7.83855 1.60669
25 1 11.216 11.8896 10.1569 -5.91624 -19.4593 -9.43665
26 1 9.50551 9.0979 11.2014 -0.777294 6.03428 1.18207
27 1 6.31313 8.84852 13.2554 2.7844 -3.42009 -8.39623
28 1 4.79617 1.44575 13.8907 8.45596 2.11707 -8.92441
29 2 5.56313 0.98439 10.8659 1.16655 -8.94961 6.41276
30 2 0.585834 1.49221 15.1276 0.873359 -1.60187 14.5102
31 2 11.651 4.75272 9.88706 -3.237 6.24676 10.0885
32 2 6.93684 11.5276 10.9408 6.41588 6.43463 10.4438
33 2 6.44109 6.0559 12.4372 -8.18967 -5.6352 5.84446
34 2 3.14779 5.43821 10.4844 13.531 7.90102 1.45524
35 2 1.16555 11.2531 11.4993 11.4234 -19.4411 0.54748
36 2 11.7738 7.60549 12.6735 4.47259 -0.710654 -4.84091
37 2 3.74047 9.4168 14.9836 16.6808 6.14864 3.88349
38 2 2.32994 3.41291 13.77 -10.9789 2.02321 -4.71923
39 2 10.8251 10.0306 14.3609 5.91544 0.0271513 -11.9721
40 2 7.85364 8.03197 9.2386 -5.95663 -5.7342 3.11403
41 2 8.08283 3.3444 13.9579 -6.85259 -7.40502 -8.42441
42 2 10.129 1.01544 11.446 -6.95299 -7.08116 -7.16756
43 3 3.83708 4.19735 11.0899 -0.160368 6.01571 -1.76703
44 3 12.2979 5.94737 9.93596 2.33889 -4.61303 5.6549
45 3 10.8537 6.49372 13.098 -0.265474 -1.09169 11.6814
46 3 7.66666 4.33338 15.1147 -3.96469 3.41503 -5.04416
47 3 1.91293 5.20418 9.75068 -2.3902 -5.42008 6.91518
48 3 6.6259 5.16602 11.2344 -8.11709 2.69836 -14.3108
49 3 6.42691 2.35104 10.5129 -10.0094 1.97469 -11.5427
50 3 7.60595 8.53028 10.7037 5.22955 12.7796 -8.27721
51 3 4.11384 6.24776 9.58853 -13.0455 -13.0187 11.2739
52 3 8.34849 11.5192 10.4503 3.99683 -0.797946 5.5239
53 3 10.5512 13.1133 12.3162 -0.513891 6.86713 1.64899
54 3 4.94562 9.44467 14.0543 -4.75953 -3.34951 -4.78965
55 3 10.9569 2.28442 11.4632 -4.32419 -8.39646 -2.92524
56 3 8.71316 3.971 12.7098 -4.6021 4.4834 -11.7298
57 3 8.008 6.44048 12.7244 1.15111 4.51109 -2.05809
58 3 9.8456 9.87463 13.2714 1.52832 -6.73491 -1.31962
59 3 2.80505 8.31451 14.3039 7.43679 4.71149 6.02793
60 3 4.66918 0.836382 9.54847 16.8454 4.67094 -18.6373
61 3 6.50418 7.18783 14.9711 4.40022 11.0104 5.68184
62 3 4.03872 9.06837 10.2048 0.329853 -9.08913 3.32618
63 3 1.7015 0.411138 14.8945 1.34208 -5.73585 6.21567
64 3 0.386369 11.479 12.6868 -8.11709 1.09608 0.75157
65 3 3.62142 2.64289 14.323 -12.2637 -4.67506 5.18459
66 3 0.287893 10.937 10.2559 0.77135 0.893332 -4.88042
67 3 6.49298 10.8385 12.4247 0.298407 -1.60701 3.01291
68 3 6.38712 13.1808 11.497 2.55922 0.234931 3.21768
69 3 12.2821 8.7876 13.9281 6.51856 2.40635 -0.727692
70 3 11.3432 8.43575 11.513 2.63888 -8.80204 4.01939
71 3 12.6309 1.08483 14.125 3.45364 4.19916 6.22415
72 3 10.2505 5.03679 10.5728 -8.72207 10.7309 -4.76681
73 3 6.1243 11.1984 9.72725 -12.438 4.29265 5.97201
74 3 3.10642 6.60332 11.4954 8.27449 -0.0267297 -6.5431
75 3 11.6417 3.84575 14.5936 11.7141 -1.65192 -3.70138
76 3 4.59731 1.63659 11.8977 1.76905 3.38648 16.1404
77 3 7.67451 9.33022 14.5826 -5.98678 5.73112 4.41964
78 3 1.91219 2.98013 12.3508 7.50516 13.8899 -3.68157
79 3 8.94643 6.91639 9.37809 -0.096574 -3.7514 -4.78252
80 3 5.49038 5.1161 13.4041 5.67921 -6.59932 -0.215752
81 3 7.57744 13.0124 14.1859 -5.12276 0.274904 6.29731
82 3 4.18118 12.5301 13.3972 3.49368 2.1905 -5.2241
83 3 6.65844 2.66312 13.6099 -2.43191 -10.6301 0.817864
84 3 2.51819 4.96377 13.6946 6.9384 1.27035 -2.16049
85 3 8.85611 2.24619 14.5434 3.30983 -0.215628 7.67678
86 3 0.164167 6.71606 12.6819 -5.23496 12.4509 1.65834
87 3 11.3257 11.4949 14.4703 5.06923 1.61862 -13.1788
88 3 2.04664 9.95644 11.6172 -7.09237 11.6902 4.70417
89 3 1.11038 2.94098 14.714 -4.46741 0.780996 2.29007
90 3 5.51728 7.35505 12.4303 4.82282 -3.87515 -4.75952
91 3 0.904934 7.61319 10.0575 -0.368496 -0.616704 -6.43844
92 3 10.2374 9.59295 9.48473 -1.49099 3.99219 -1.12731
93 3 2.94693 10.7807 15.0302 -6.18384 0.757823 -4.66297
94 3 8.66381 1.47154 11.3755 -2.8045 -4.93207 -4.16221
95 3 0.567226 1.24244 10.635 -6.09924 1.65993 4.9808
96 3 2.31059 12.3717 11.3876 2.15126 -3.60105 2.30551
97 3 12.6394 3.90502 10.9366 -0.487919 -5.15586 -5.48099
98 3 10.475 0.547069 9.70105 -7.53931 -6.1204 -1.30795
ITEM: TIMESTEP
660000
ITEM: NUMBER OF ATOMS
98
ITEM: BOX BOUNDS pp pp pp
-8.8911966683022925e-03 1.3096573196668459e+01
-7.6514174794493073e-03 1.3153235417479360e+01
9.2127394064100372e+00 1.5381309593589961e+01
ITEM: ATOMS id type x y z vx vy vz
1 1 13.0695 10.551 14.6651 3.54593 -6.5998 -11.0324
2 1 8.77239 2.84138 11.2921 18.7292 -6.27791 10.4016
3 1 8.28833 12.5141 11.5924 -9.96224 -1.85015 6.12389
4 1 3.92593 8.45828 14.9225 -6.42263 -13.4716 -0.0705999
5 1 8.90903 5.57282 13.1485 -1.76535 1.70546 -0.174865
6 1 10.2563 0.74941 9.35418 -1.97598 -3.70554 5.87988
7 1 5.71652 11.8563 13.4575 -0.668865 -12.0144 -0.307443
8 1 8.85874 8.14181 12.8826 10.1854 0.211627 -11.1081
9 1 7.68995 0.610309 15.1192 -14.8603 -1.67616 3.03927
10 1 8.36616 10.5621 15.0739 4.78695 -1.09874 -16.9336
11 1 1.02979 7.96799 10.2206 -5.76795 10.5822 5.39568
12 1 4.19231 9.24404 11.8611 0.658691 3.4032 5.41375
13 1 0.366711 3.48779 10.7723 -7.43954 -0.69773 6.25137
14 1 11.2396 3.88237 12.7371 21.0693 -4.37 6.10338
15 1 8.92506 5.2287 9.81188 -5.93504 5.03654 -3.31769
16 1 3.61553 13.1858 12.2572 -6.2925 11.7559 -1.24107
17 1 1.35923 7.57449 13.1694 12.7025 -2.53733 15.0116
18 1 6.28275 4.61348 11.6565 0.95491 -6.0346 5.23938
19 1 5.63829 6.71023 9.65841 1.16949 0.237206 5.22278
20 1 2.06197 0.119084 14.6801 -2.09406 -8.34908 2.88521
21 1 10.7826 11.7256 9.8451 6.10176 1.82542 -5.54151
22 1 4.47233 3.66714 9.5044 3.98361 2.84187 1.0699
23 1 11.8353 6.64151 15.3336 2.32484 3.221 4.1633
24 1 2.53684 5.56514 14.6962 0.264753 6.24366 5.57639
25 1 0.514541 0.414857 11.9116 19.3492 -13.1761 3.16955
26 1 11.9475 9.84691 11.2424 3.26024 -0.889466 -2.57091
27 1 6.58995 9.01634 10.667 -8.09496 -2.79695 4.0168
28 1 6.66573 1.84797 13.2612 11.4764 -2.64913 11.3296
29 2 5.85403 1.40829 10.922 -3.11654 -8.5852 -6.56638
30 2 13.0684 1.24252 9.12121 3.52156 -10.9758 -15.1792
31 2 11.2963 3.73799 9.42807 -10.5395 -16.1333 2.8827
32 2 6.2576 11.4521 10.3036 2.183 0.936423 0.544505
33 2 6.07414 7.31285 13.0117 -13.4048 8.19845 6.71549
34 2 2.54282 5.32153 11.1469 8.26621 -1.36162 -0.0965136
35 2 1.86081 10.2313 11.0643 -15.6699 9.2323 8.96753
36 2 12.2665 7.39736 12.6208 4.33171 -3.61993 14.7497
37 2 3.18999 10.9172 14.6178 -7.85407 2.61567 -5.19704
38 2 2.5354 2.91329 12.7968 -5.9218 0.640637 -6.19545
39 2 10.4537 11.5572 13.0101 -0.838043 -23.2754 -7.90941
40 2 9.42737 8.15239 9.90914 6.90641 0.778746 -4.79725
41 2 6.90918 3.81882 14.7829 13.8121 20.0577 11.5017
42 2 10.6644 1.29732 12.4379 -11.3639 -6.74835 15.9792
43 3 2.52981 5.95868 12.5679 11.2394 -8.09481 -1.97018
44 3 11.4325 4.87074 14.447 -5.10145 6.14713 4.53745
45 3 13.0568 6.50925 13.6487 -3.47528 6.97647 -11.8242
46 3 5.98025 4.49406 9.72309 0.555029 -5.17339 0.384644
47 3 1.39583 4.90405 10.222 -7.49359 7.69437 3.9716
48 3 5.88709 6.52987 11.6831 -1.92974 -10.7739 1.97314
49 3 7.23787 1.87054 11.469 -0.493403 8.20816 -1.10146
50 3 10.4912 9.21856 10.5529 14.2377 0.649115 -2.85123
51 3 3.39174 3.65504 11.4259 10.9978 -5.2136 -6.90323
52 3 7.55348 10.7374 10.9401 3.96375 3.67441 -3.04196
53 3 12.0122 1.44644 11.992 0.998019 3.00566 -0.564728
54 3 3.75312 12.2822 14.1901 -4.55613 -0.817829 -0.617498
55 3 9.76482 0.620245 11.2446 -4.67409 3.8628 6.90022
56 3 8.00198 4.81697 14.6728 0.410745 -3.66658 -3.15163
57 3 7.47262 6.70378 13.5008 -6.1269 0.0864325 3.84602
58 3 8.90279 11.1801 13.0527 2.40389 14.0041 0.858863
59 3 3.8157 9.90651 13.7001 -3.98585 4.64773 -9.02261
60 3 5.04581 2.00629 9.79376 -6.97371 -12.5666 -0.727109
61 3 8.30115 7.92779 10.9054 -13.7642 -4.59652 -2.95747
62 3 5.05488 8.44564 10.2513 -7.52636 1.14225 2.98959
63 3 11.9436 0.325657 9.59519 3.96556 2.72827 -0.677976
64 3 2.05897 11.5769 11.7248 10.7118 1.71372 3.44291
65 3 2.90952 3.68522 14.3654 3.57629 -3.49895 6.41041
66 3 0.417463 9.93415 9.94662 4.51863 1.07876 0.380269
67 3 5.20206 11.3774 11.4847 0.46389 3.48679 -7.78484
68 3 6.46854 13.1975 10.2135 -0.181566 18.4677 5.84203
69 3 12.5606 8.92803 12.6238 0.934617 -7.18188 -1.67315
70 3 10.6754 6.95226 12.8287 -6.25731 12.4603 4.60247
71 3 0.964471 1.06333 10.2937 -9.98705 -0.246866 -13.4671
72 3 8.42678 4.76036 11.5637 -2.57945 -4.91926 6.03373
73 3 6.02197 10.8517 15.1697 9.71691 1.66404 6.41842
74 3 3.59606 5.89315 10.1951 -10.4455 -7.29167 -7.05234
75 3 10.1663 2.86002 9.76972 5.60423 -3.83573 -8.62691
76 3 4.98328 1.02605 12.1592 -7.73987 1.64291 -15.5942
77 3 8.94579 8.83561 14.764 9.08195 -6.67977 -2.28958
78 3 2.53317 1.33681 13.03 -3.3626 1.21017 6.64105
79 3 10.0984 6.90536 9.41451 -8.30142 -1.01348 4.91137
80 3 5.10439 6.9319 14.1432 0.05942 7.40792 -8.18918
81 3 9.11884 12.3372 9.65004 -5.35287 -0.767856 -0.119569
82 3 7.05392 13.1203 13.2815 0.902094 3.35622 3.49016
83 3 6.04512 3.67687 13.6036 2.34354 -6.2803 -0.419838
84 3 1.16909 3.25338 12.3371 1.30905 -0.746111 4.71134
85 3 7.46259 2.36502 14.8714 -0.242545 6.60015 -9.14058
86 3 12.8373 7.15725 10.9879 0.427037 6.51567 -0.981491
87 3 11.3498 11.5398 11.7585 -3.46562 -1.07346 -8.5905
88 3 2.1074 8.98312 11.7837 -1.28457 -6.83971 -7.50777
89 3 12.5628 2.80954 15.0754 5.1539 0.876754 -4.52304
90 3 6.18389 8.80083 12.7667 1.9818 4.13298 5.64005
91 3 2.1219 7.64164 14.9778 -4.03501 -5.13666 -4.08874
92 3 11.3615 10.8211 14.2232 1.26594 -9.36149 7.65172
93 3 1.62116 11.5474 14.5463 5.53007 6.65523 9.11626
94 3 10.0426 2.60031 13.0116 12.8598 -0.883693 3.66838
95 3 0.405945 0.562905 13.9668 0.67464 -0.404545 17.8959
96 3 3.11208 10.1356 9.77629 5.50337 2.27623 7.59264
97 3 11.6696 4.47929 10.7844 -2.31882 2.09271 -1.75427
98 3 10.6861 0.188253 13.5194 -3.65878 1.02231 -9.7282
ITEM: TIMESTEP
680000
ITEM: NUMBER OF ATOMS
98
ITEM: BOX BOUNDS pp pp pp
-8.8911966683022925e-03 1.3096573196668459e+01
-7.6514174794493073e-03 1.3153235417479360e+01
9.2127394064100372e+00 1.5381309593589961e+01
ITEM: ATOMS id type x y z vx vy vz
1 1 0.380703 12.5412 14.7523 -11.0948 -5.44901 -1.97025
2 1 3.33313 12.86 14.1418 -0.58741 -5.0169 -12.613
3 1 8.69225 11.7969 14.8748 1.59954 -8.22951 1.68344
4 1 1.29121 4.675 14.4647 17.7373 -2.05687 8.08634
5 1 10.6846 4.33051 14.5472 15.0169 -1.25941 6.97823
6 1 8.06945 1.38176 13.4465 -6.48516 11.6186 -12.6547
7 1 6.37111 0.0231784 9.29521 7.56035 -0.884959 -14.1861
8 1 8.57445 6.38728 14.1364 0.0692416 10.8259 6.50724
9 1 7.70356 10.3119 12.1105 -0.237695 -1.12171 8.58041
10 1 10.5869 8.71861 12.6029 -11.6525 -19.234 4.34527
11 1 3.85463 6.19374 14.4637 -14.2137 -7.30418 9.04456
12 1 3.00848 9.73515 11.6491 -7.14886 -1.32378 -6.15445
13 1 11.5062 6.78935 10.9474 0.564134 2.87483 -2.26174
14 1 0.995817 4.29348 11.2093 2.51088 -10.0192 -3.43241
15 1 8.54301 1.90818 9.89259 20.4758 -8.05041 -2.15601
16 1 1.3488 7.55391 9.5034 19.7406 -5.29202 -4.10365
17 1 6.08448 4.6925 11.8979 8.35487 -2.67009 -19.1893
18 1 5.06527 2.83062 15.3891 5.89769 -10.755 11.0333
19 1 8.17524 5.9967 11.0419 -5.20833 -4.91476 -5.04093
20 1 0.216272 0.865331 11.9276 -9.14359 0.381391 2.71503
21 1 11.109 1.68346 9.42743 17.0756 -13.4084 16.7852
22 1 6.51188 8.14892 9.85845 -2.01246 -12.6597 24.44
23 1 12.1944 9.0947 14.7517 -0.481151 2.62647 -6.3139
24 1 1.39038 7.40314 12.5595 -1.01999 14.8948 -8.36191
25 1 4.4787 9.04536 14.2261 -5.0299 -21.4986 4.65332
26 1 10.8916 11.0527 9.94303 -10.0965 12.1795 -2.53963
27 1 2.83921 12.4728 10.9712 -0.992663 9.50804 -6.82187
28 1 6.26555 12.5061 12.4476 1.55186 12.0195 -6.47393
29 2 4.72091 1.39662 12.0402 2.42891 5.75328 8.56752
30 2 1.31853 1.70043 9.53282 15.2266 4.28529 -14.7775
31 2 10.8024 4.54861 11.0496 2.16779 0.466448 10.2242
32 2 5.12872 11.2252 9.82303 6.49534 -3.68499 -2.99681
33 2 6.62404 7.92438 12.8056 -2.82456 1.81003 -7.39009
34 2 3.39365 6.27342 11.3133 -6.24646 3.48233 -11.9683
35 2 0.205316 10.2085 11.6037 9.1337 6.15442 1.83529
36 2 12.0729 6.64588 14.0799 1.92085 -13.9137 -9.06119
37 2 2.12206 10.0027 14.5335 -0.913793 -0.466823 3.60912
38 2 3.20099 3.79464 13.0196 -13.4883 -2.33458 1.66629
39 2 11.2823 12.0433 13.0865 9.95274 -6.42107 -3.14492
40 2 9.14254 8.60116 9.87172 4.39501 -8.29094 17.4089
41 2 7.29818 4.2105 14.27 7.33495 2.80069 -11.3904
42 2 10.2999 2.17997 12.4705 5.03062 -2.32524 -2.53518
43 3 3.14516 7.44376 12.2556 -4.49127 0.567254 18.7924
44 3 12.3261 4.93572 10.841 -5.34576 3.42946 -0.158655
45 3 12.5782 7.44052 15.4109 5.62307 2.68087 0.425273
46 3 8.00889 2.79451 14.4118 -4.60382 -4.96453 5.47782
47 3 1.9712 5.89035 10.5579 5.75474 -7.22411 5.22877
48 3 5.93282 3.60794 10.5097 2.66787 -10.8297 -1.64678
49 3 4.54461 1.17061 10.5641 -5.90105 8.59347 -12.5683
50 3 10.3771 8.34591 10.9235 0.29305 -9.20235 -7.60944
51 3 3.84791 5.03106 12.1263 -6.56629 2.56376 6.05112
52 3 6.2485 11.6814 10.8758 3.35313 -0.945374 -5.23798
53 3 11.692 1.87883 11.8518 7.14339 -1.60738 -7.36345
54 3 1.80418 11.6874 14.926 1.12 -0.701363 -3.43629
55 3 9.03319 1.4078 11.8507 -1.4536 7.22208 -1.87647
56 3 7.882 5.21769 15.3951 4.06814 0.76914 5.14222
57 3 8.12099 8.26544 12.732 -5.92737 -4.30155 7.24803
58 3 10.6178 11.5127 14.3076 -2.8482 0.87394 3.41691
59 3 3.35571 10.2153 13.3692 13.6083 -0.630238 -5.44199
60 3 4.05418 13.2235 12.4751 8.19236 3.30932 -2.97437
61 3 10.0078 9.12259 14.8427 -7.57762 5.09356 -5.40257
62 3 6.39554 6.81991 11.4958 -2.4957 0.13174 9.97182
63 3 12.7988 1.57587 9.35516 9.80608 -6.93935 -3.17436
64 3 12.5787 10.4011 10.0017 5.91154 8.06126 3.93463
65 3 3.64656 2.4652 12.6283 -1.76259 2.03521 -3.51865
66 3 2.91203 8.84597 15.2 6.39408 -7.69661 6.66603
67 3 3.74742 11.0883 10.4683 11.3668 2.54606 -13.6165
68 3 4.92413 12.3753 14.8349 -2.79336 -1.0158 7.22115
69 3 10.4113 6.24544 14.441 -11.5135 7.26478 7.95497
70 3 12.4758 5.07046 13.9957 4.28002 7.65639 -0.587082
71 3 1.47957 0.717151 10.7255 -4.00639 -2.0838 -14.4955
72 3 10.0777 5.78136 11.1019 -18.0629 -9.17746 1.05441
73 3 5.58813 9.87172 9.22634 4.92728 -1.8411 -2.2475
74 3 4.13856 6.66266 9.93121 -1.42227 3.81867 2.72372
75 3 10.4862 3.39109 10.0012 -0.800736 -1.89339 -1.15555
76 3 6.12185 1.2849 12.7211 4.67732 -4.6066 5.04027
77 3 8.02058 7.68967 9.66168 -1.99938 12.8493 5.23523
78 3 1.53975 3.9544 12.7532 -8.14616 11.7765 3.512
79 3 8.59964 10.1083 10.3309 5.01759 9.04488 -6.04064
80 3 5.84036 9.24118 12.342 4.77371 -10.9583 14.4173
81 3 7.99356 0.401529 15.3517 -2.68706 -2.34496 1.97464
82 3 7.59215 11.5435 13.4124 -6.82636 7.7003 -2.08249
83 3 5.81348 3.96997 14.0104 -2.51285 7.09509 4.36659
84 3 3.53439 4.29444 14.4581 2.31118 -0.846728 -12.0178
85 3 7.63859 5.15223 12.8605 -11.8596 -1.42318 6.1338
86 3 12.2218 7.27207 12.6351 -1.61069 5.8788 2.77567
87 3 12.0331 9.97729 12.6657 -14.1634 4.10705 1.55707
88 3 0.995334 8.91313 11.5046 5.03891 -2.78681 -6.14095
89 3 1.53297 3.06883 10.1006 1.34888 -8.1249 -2.55054
90 3 5.93976 7.25507 14.1493 0.543588 1.04658 -0.158531
91 3 1.72885 6.45507 14.0409 -11.6302 -7.04265 -0.602729
92 3 12.679 12.6812 13.1703 0.424148 7.05666 6.42954
93 3 0.903429 9.022 14.1842 0.744574 -3.10251 9.46429
94 3 10.2748 1.33838 13.8545 -11.2633 0.116108 -1.88573
95 3 1.96931 1.10242 14.3674 2.34669 5.13319 -5.58595
96 3 1.23074 11.2347 11.6854 -1.88447 1.38267 -9.13644
97 3 10.2198 3.80993 12.6658 3.13411 -6.58225 -1.73528
98 3 10.4689 12.0264 11.8069 6.05452 8.54865 1.14003
ITEM: TIMESTEP
700000
ITEM: NUMBER OF ATOMS
98
ITEM: BOX BOUNDS pp pp pp
-8.8911966683022925e-03 1.3096573196668459e+01
-7.6514174794493073e-03 1.3153235417479360e+01
9.2127394064100372e+00 1.5381309593589961e+01
ITEM: ATOMS id type x y z vx vy vz
1 1 12.829 0.957098 13.7014 -3.42871 5.33721 8.3069
2 1 12.829 9.30824 13.7987 -2.54855 -1.69014 21.1906
3 1 10.2918 1.03881 14.863 -3.3215 19.5662 -11.8608
4 1 1.68011 6.4666 12.984 0.458264 -9.01904 5.97866
5 1 2.06377 2.89558 11.1878 -6.29212 -5.85143 3.79938
6 1 11.4861 11.5448 15.3206 -11.8019 -0.724782 -5.07479
7 1 0.220631 0.416798 10.3113 -9.21992 1.53476 -7.64217
8 1 9.57895 4.38303 14.5944 -14.6324 8.12438 13.2784
9 1 7.0313 0.132888 12.5473 33.1151 9.29848 12.6211
10 1 8.80717 11.3799 13.9136 -20.6462 5.21534 -5.37202
11 1 2.36375 11.9365 13.0178 -0.122679 -3.86587 -9.24163
12 1 3.47482 10.863 9.82344 5.63252 5.87741 -5.58906
13 1 9.65678 7.74957 12.4729 -1.64058 5.99413 -5.24802
14 1 4.99837 3.22191 11.3685 -9.81524 -8.38022 -2.93586
15 1 12.2266 6.87325 10.9862 24.7574 12.5567 12.0951
16 1 1.35303 6.58632 9.75968 -18.947 -10.7569 -3.83563
17 1 7.26926 4.63144 13.0712 -14.9328 -6.62176 -5.16777
18 1 3.39833 4.71459 14.7685 -1.44446 -0.20459 19.4177
19 1 6.69137 4.71923 9.67882 1.52393 -9.70197 5.02398
20 1 12.4905 4.23061 13.3868 -22.4937 -13.0464 -4.30915
21 1 6.69302 7.99439 9.99962 22.2194 11.4378 -3.56861
22 1 4.78096 7.23972 13.7611 1.85253 11.0337 10.446
23 1 9.89989 7.66129 9.85628 7.40208 8.52468 -9.41178
24 1 2.95435 8.40575 11.1444 -16.6127 -5.06923 -1.9368
25 1 5.90044 10.3973 13.824 -0.383712 5.75375 -1.38777
26 1 8.16896 2.52877 11.0555 -0.844582 -12.4916 3.4793
27 1 3.86132 0.757864 13.8537 3.72809 -2.09389 9.65559
28 1 6.70667 13.1559 9.38522 8.70332 4.8064 -11.9643
29 2 3.55677 0.329275 10.5265 0.713095 -0.0521603 -4.25065
30 2 12.5804 3.64523 10.2324 -4.80846 -9.3946 -12.3506
31 2 10.1671 4.62452 11.3969 -2.12805 0.565689 -2.69313
32 2 5.92172 10.7483 11.0047 -6.55389 2.66823 -3.34758
33 2 7.40902 7.36375 13.7711 7.62596 7.10698 6.55125
34 2 4.14497 6.01698 11.3488 -10.564 0.664495 1.36335
35 2 0.551317 9.77731 10.4927 -9.89177 -4.53156 -15.2163
36 2 11.7251 6.85623 13.943 0.930064 11.4186 -0.856229
37 2 2.49316 9.03651 13.9717 -1.85228 4.11865 7.47903
38 2 2.27416 2.51226 13.6906 5.29811 -2.42634 -13.2472
39 2 12.3009 11.3752 12.5651 -14.4616 -3.51555 24.9175
40 2 9.0829 10.3691 10.725 4.19199 10.3662 -11.4653
41 2 6.87469 2.00003 14.3642 -0.814792 8.87652 -2.51564
42 2 10.4366 0.604254 12.1412 10.863 -1.4175 -6.4592
43 3 4.18111 4.68456 10.3976 6.22159 0.0383907 1.90097
44 3 10.4634 5.97265 10.8608 -8.29141 -11.4094 -2.44546
45 3 13.0067 5.93319 13.232 1.9123 -8.00122 -8.89606
46 3 5.60588 1.20697 14.1739 3.65704 5.37426 4.50153
47 3 2.77396 6.58148 11.4254 -7.72752 9.08669 -1.95291
48 3 6.73632 3.75328 11.2692 5.79908 0.515291 5.50003
49 3 4.62256 1.6213 10.4616 0.377937 6.30665 2.77105
50 3 8.76973 10.757 12.1327 -6.36728 -0.545468 0.938243
51 3 5.21296 7.02023 10.6303 5.03888 3.42385 -12.9484
52 3 6.4309 12.2062 10.8382 2.35491 1.26304 2.7944
53 3 9.67054 1.07421 11.0338 15.3257 -4.78084 3.89551
54 3 2.9775 8.53033 9.26497 -7.87276 -3.43659 0.837047
55 3 9.81873 12.9082 13.3215 -1.11974 3.98934 -0.932094
56 3 6.79247 3.68097 14.5071 0.23691 -1.98928 1.75113
57 3 7.69319 6.48653 12.6826 -0.298248 2.7696 4.24407
58 3 11.1726 10.8043 13.5588 3.32025 -2.72642 -4.27621
59 3 2.82617 10.6173 14.1078 4.49682 -12.4781 -9.80527
60 3 2.17741 0.868026 10.5378 4.94847 9.92388 9.67106
61 3 10.0325 9.2313 10.5843 3.3189 -7.89551 3.19045
62 3 6.11811 8.36414 13.9068 3.40278 0.325045 -1.94045
63 3 11.7698 3.63631 15.0675 -0.0666463 -2.8548 -8.02981
64 3 0.108232 10.319 9.28718 11.9513 8.8686 -9.75699
65 3 1.90413 0.918968 13.8213 -0.177894 16.3298 2.70675
66 3 3.49293 8.40254 12.9045 -3.51962 -0.284897 -3.35704
67 3 3.83412 12.6266 9.25016 -1.96754 -2.66897 -6.46214
68 3 5.31304 10.3858 9.67321 0.614369 10.5055 15.243
69 3 11.3965 7.78427 12.94 1.61345 8.06192 7.01556
70 3 11.9683 7.49822 15.3039 4.85523 8.02864 4.82253
71 3 0.145617 2.2925 10.5163 1.22171 -3.5706 11.13
72 3 9.19323 3.83518 10.2615 -11.8281 -1.15066 -6.1233
73 3 5.16262 10.2926 12.2183 -2.97079 6.19764 0.449316
74 3 4.70714 5.60658 12.6987 9.95643 2.28856 0.331713
75 3 11.6566 4.14782 11.5613 0.83043 -3.94347 -6.96867
76 3 3.67999 13.001 12.1009 8.82083 -5.77404 -6.93772
77 3 7.54528 9.63153 10.6096 2.28069 -18.9272 2.83791
78 3 1.11389 3.32894 12.754 7.02016 -9.65828 0.139088
79 3 9.37685 11.3669 9.54191 -0.714557 -0.623294 2.60225
80 3 8.65635 8.23268 14.2776 2.68779 5.17153 3.05001
81 3 12.0284 0.330033 15.2366 2.96999 -1.08095 -7.48889
82 3 6.72477 12.2135 14.0815 1.18471 1.21696 0.167582
83 3 7.66942 1.81413 12.9683 -11.4554 -13.9728 7.18069
84 3 3.6519 2.77331 12.9009 -4.2685 -3.43779 0.209756
85 3 7.61695 1.64736 9.59958 -10.137 2.83752 -5.80853
86 3 10.6511 5.89786 13.9485 11.4335 -13.6164 7.09007
87 3 12.5764 10.255 11.5541 3.73984 -3.60597 7.97835
88 3 0.765617 8.20052 10.626 3.37636 17.9768 8.48651
89 3 0.428189 5.11002 10.15 5.50414 -3.50583 -2.73429
90 3 7.42578 6.38729 15.1249 -2.2209 0.908452 -4.7228
91 3 2.50415 6.31669 14.6369 7.16313 -4.64436 -7.44434
92 3 0.486505 11.9149 13.2607 -11.8197 1.81167 2.99272
93 3 1.14583 8.4887 13.5672 -1.14754 -1.0946 3.78517
94 3 11.2766 1.56769 13.1217 -6.98533 4.28021 -2.92508
95 3 2.47614 3.10933 15.0523 3.09225 -13.4453 -4.9426
96 3 2.00754 10.5882 10.9219 -5.93929 -1.22844 -0.817446
97 3 9.41242 3.9683 12.7317 -4.91496 -2.36661 2.75671
98 3 11.9409 12.7635 11.5979 -10.5697 6.2891 -1.26503
ITEM: TIMESTEP
720000
ITEM: NUMBER OF ATOMS
98
ITEM: BOX BOUNDS pp pp pp
-8.8911966683022925e-03 1.3096573196668459e+01
-7.6514174794493073e-03 1.3153235417479360e+01
9.2127394064100372e+00 1.5381309593589961e+01
ITEM: ATOMS id type x y z vx vy vz
1 1 12.9297 4.27043 13.8558 9.37156 2.25923 -13.3603
2 1 2.64819 9.09069 10.5408 -11.7034 -6.29388 12.0639
3 1 6.08424 8.59908 13.4515 11.2755 -0.107397 -5.148
4 1 11.6894 9.48688 13.3481 3.07448 -13.3189 4.07369
5 1 1.26125 0.316516 9.73645 -15.3428 8.93097 -5.558
6 1 7.00625 12.897 15.3718 -6.65488 -4.5949 10.3031
7 1 -0.0842233 0.863978 12.981 -7.09702 10.8194 -2.82798
8 1 10.0293 4.55746 13.0784 5.10088 -19.0332 -5.27104
9 1 7.54909 12.8771 12.5669 -11.3577 -9.20241 -4.78209
10 1 9.93508 12.1781 12.7483 6.53659 -11.0862 7.69284
11 1 2.95939 11.2846 15.2824 6.6698 9.77213 -1.81042
12 1 11.719 1.16349 10.5531 1.74687 6.54863 5.04419
13 1 11.1903 9.25912 9.52863 11.0498 -19.2723 -7.78974
14 1 6.80334 5.06228 12.5903 8.43492 -6.55956 20.2796
15 1 9.52462 12.8499 9.31613 -3.03914 12.2848 -9.47764
16 1 8.11393 10.5648 14.3478 -11.9107 11.686 -3.8871
17 1 4.19221 6.8613 13.5509 -2.97426 7.84356 15.3963
18 1 2.51878 4.90093 12.053 -14.6702 -9.31424 -14.3191
19 1 7.56193 2.15529 10.9023 7.13798 19.1971 12.6613
20 1 5.12962 0.506841 12.7373 -10.0633 -8.40724 -6.5048
21 1 6.29243 8.20714 10.2728 -4.65026 3.45421 -13.0644
22 1 1.65888 6.4256 15.0022 -4.82215 6.70005 -1.18159
23 1 9.15183 6.74462 11.7856 4.34663 -12.4146 3.99489
24 1 2.79923 11.9063 11.8528 6.11704 -13.1419 -9.10449
25 1 3.12401 3.99005 14.7327 -6.81664 5.25995 -5.98862
26 1 7.35836 4.45599 9.4764 -1.07701 3.40854 0.424003
27 1 4.80371 3.76247 11.1046 11.6519 -15.2889 5.48244
28 1 12.8503 6.94497 11.264 -12.74 3.81439 7.60738
29 2 4.33126 1.09835 9.65814 -5.60904 -0.967552 -14.4199
30 2 0.220354 3.69013 10.3241 0.0283998 -10.0338 4.22634
31 2 10.0782 4.02028 10.0647 -1.77131 4.40105 -15.0965
32 2 5.62229 10.8043 10.7535 7.49606 11.3493 6.90446
33 2 7.41064 6.85561 14.6201 -4.93356 5.06297 14.0681
34 2 4.30458 6.02701 10.442 6.3972 1.31664 25.2427
35 2 -0.173378 11.4975 11.0852 -15.6556 1.61857 -3.96142
36 2 12.1126 6.95462 14.1377 7.71192 -5.49088 5.93593
37 2 2.89444 9.16958 13.479 -3.88915 -3.83592 -9.9167
38 2 2.70929 1.81249 13.4484 10.3789 -6.19678 6.14592
39 2 12.491 11.4315 14.7674 14.701 6.32413 -3.21241
40 2 9.28891 9.247 11.3687 13.2116 -6.29294 13.0687
41 2 7.76262 2.48445 13.7859 -0.318926 12.9566 -8.48836
42 2 10.5487 1.6347 13.5614 2.00061 7.43811 0.688411
43 3 4.66054 4.72645 9.59826 -4.75358 5.72636 2.32829
44 3 9.81405 5.08923 11.3978 -4.57299 2.84384 -3.67136
45 3 0.0991241 7.37793 12.9763 -2.09691 -4.12236 9.62837
46 3 6.94143 3.78139 13.9708 -0.18539 -2.72824 -5.22977
47 3 2.67504 5.90949 10.4544 -6.24273 -8.49116 6.97854
48 3 6.94529 3.97623 11.221 -3.99946 2.51234 1.02811
49 3 5.15399 1.78951 10.7222 -2.96384 -0.590639 -5.05016
50 3 9.02903 10.3338 12.5196 -2.75545 -2.58213 5.75792
51 3 4.71052 7.47479 9.75545 6.70702 1.80024 -3.79875
52 3 6.3884 10.757 9.42447 -6.04444 3.04491 -4.38355
53 3 11.6886 2.88681 13.5556 2.42951 -16.2556 -2.1917
54 3 2.79284 10.8085 13.5641 1.54217 -11.415 -9.24129
55 3 10.9671 0.750981 12.4755 0.948743 2.72588 -5.93111
56 3 9.2162 2.4261 13.1415 -6.332 5.65196 -0.691228
57 3 8.4692 6.2477 13.5383 -10.5805 10.2747 0.226111
58 3 11.245 11.4914 13.9607 1.79366 13.239 -3.65105
59 3 2.10145 8.76713 14.8569 9.48762 -7.85515 0.36263
60 3 3.198 0.144794 9.97944 -3.35591 1.77439 -6.42264
61 3 10.5236 8.08438 11.0752 -0.260918 -1.12228 -3.37047
62 3 6.09732 6.54543 13.7371 -6.1615 -0.818445 -2.36554
63 3 1.01101 4.23791 9.18208 3.30032 -12.6022 -7.12246
64 3 11.5895 12.3979 10.0642 -6.22968 -5.78171 -2.73634
65 3 3.43415 0.453296 13.1003 -2.94495 -2.51506 8.21144
66 3 2.3266 8.50377 12.2904 -0.450307 6.68356 -3.64272
67 3 5.31855 0.358652 14.8288 6.71375 -3.07982 9.81718
68 3 5.85179 9.70165 11.8388 2.31705 8.86352 -8.62259
69 3 10.8606 7.94566 14.2012 2.98972 3.96724 -6.96748
70 3 12.8458 6.9375 9.29978 -1.77432 0.382184 0.0254529
71 3 0.329217 2.17294 10.7217 4.98531 -1.10239 -0.248575
72 3 9.45393 4.49894 14.977 9.34199 -0.480173 -10.4404
73 3 5.63298 12.2365 11.5543 5.80752 -1.28153 2.28875
74 3 4.71 5.49042 11.8683 2.22682 -0.417375 2.92772
75 3 11.7859 4.08486 9.97227 -13.6123 7.60748 6.32363
76 3 4.11274 10.3983 10.3749 -1.99706 -6.43072 7.54263
77 3 8.09298 8.24814 11.3482 7.41341 -5.79059 -0.83268
78 3 1.25525 1.75167 13.7446 4.58474 0.554751 -4.95504
79 3 9.57366 10.146 10.0025 -0.427489 -2.10808 -4.49945
80 3 7.36157 8.38157 14.7931 -3.3721 -2.37306 5.58896
81 3 8.36462 12.8709 10.8456 9.94813 0.504816 10.0155
82 3 8.60093 12.4987 14.1471 2.68226 -6.17435 -4.42295
83 3 6.92239 1.55301 12.5639 4.90721 4.01776 -7.47518
84 3 2.95281 3.13566 12.6004 3.57465 4.23862 -4.6518
85 3 7.41059 1.54883 14.9209 1.99801 0.515256 6.02407
86 3 11.3854 5.60482 13.9235 7.17516 4.88734 2.0477
87 3 0.6185 12.8193 11.7192 -0.402939 13.5705 3.78067
88 3 12.1744 10.4846 11.7087 -11.5201 -8.97797 1.44117
89 3 0.559326 4.61269 11.689 4.87488 9.96585 13.4772
90 3 7.48244 6.1865 9.84808 6.82899 11.6938 13.7507
91 3 2.71341 5.52504 13.8162 -6.18394 -5.51595 -4.35224
92 3 12.6751 10.1315 15.3726 0.916749 -2.71112 4.51704
93 3 4.25501 8.71914 13.6376 -2.18285 -1.26155 3.26322
94 3 10.7358 1.15059 15.1638 7.57932 7.62246 -2.77678
95 3 3.53603 2.25446 14.8166 1.59306 5.82507 3.27643
96 3 1.2948 10.6922 10.6122 -4.57008 -6.73674 0.906075
97 3 9.42404 2.83231 10.7268 -0.151286 3.28369 -8.15888
98 3 0.335395 12.668 14.6235 -10.8149 -7.65527 -1.83536
ITEM: TIMESTEP
740000
ITEM: NUMBER OF ATOMS
98
ITEM: BOX BOUNDS pp pp pp
-8.8911966683022925e-03 1.3096573196668459e+01
-7.6514174794493073e-03 1.3153235417479360e+01
9.2127394064100372e+00 1.5381309593589961e+01
ITEM: ATOMS id type x y z vx vy vz
1 1 2.28436 3.43758 14.5869 -8.77766 -17.6885 -6.6805
2 1 2.72721 8.36845 11.1148 -0.702974 -5.06543 8.39074
3 1 5.69387 9.18572 14.9929 2.42216 3.76652 -9.28348
4 1 11.4802 9.4669 12.4217 -9.41084 -11.8766 6.93093
5 1 12.5857 1.45339 15.1129 6.59955 12.727 -7.73437
6 1 7.47539 0.29973 15.3984 -14.05 -2.27851 14.125
7 1 12.8059 4.01323 13.7899 7.70368 -5.35139 15.2271
8 1 9.69018 5.77312 13.5165 7.98004 -1.81707 -9.51564
9 1 10.1119 12.1893 10.7484 -1.18567 -19.9716 -5.5016
10 1 12.6343 13 12.5525 -2.10352 1.70828 8.94326
11 1 0.675266 6.0463 9.60592 11.316 15.61 16.1473
12 1 10.8209 1.79437 10.7667 -7.97417 4.31147 8.19436
13 1 10.8836 6.91507 10.3539 6.38126 -0.865843 -6.68602
14 1 5.49959 3.1051 12.3909 -10.1947 -19.3134 1.13943
15 1 0.309082 9.31187 14.5104 -1.921 -4.78917 -8.84038
16 1 7.51535 12.7898 12.4275 8.62681 5.00726 -4.57809
17 1 6.44054 9.12419 12.2058 -0.987287 19.6185 -3.96158
18 1 2.62497 6.45303 13.1526 -4.76257 4.67503 0.27791
19 1 7.83487 1.96165 10.9543 11.2722 -0.0246364 -4.62758
20 1 2.57316 12.0933 9.55757 6.24377 -18.7201 17.0264
21 1 6.68978 11.3413 13.9396 8.26694 9.88273 10.4739
22 1 5.90872 5.37243 13.7239 8.35858 -3.71253 6.25254
23 1 7.43236 6.94598 10.9355 2.62408 -10.2562 11.0433
24 1 2.67946 11.9092 12.5774 -9.62512 -17.704 3.22294
25 1 2.2428 3.81229 11.9168 -7.44218 3.22173 -8.78893
26 1 5.89914 3.30222 9.80851 -17.9708 -3.68788 9.34646
27 1 4.8674 0.493738 11.4713 -0.360071 1.32205 9.62655
28 1 9.89696 11.2694 13.8404 -2.50261 7.58099 -12.8633
29 2 4.35156 0.830457 14.3792 12.2705 8.62902 7.36425
30 2 12.6935 3.49036 10.6932 -0.520714 8.14363 3.94857
31 2 9.65639 4.43592 10.4299 7.93097 10.0819 18.9698
32 2 5.51781 10.9056 10.8914 5.4957 1.61607 -1.5612
33 2 7.62738 7.94776 13.8193 16.68 -6.96884 4.24733
34 2 4.3201 5.40378 10.6513 -10.8968 8.36052 28.3241
35 2 0.592302 10.1687 11.0142 10.8997 -3.03449 -2.97053
36 2 12.358 6.7607 13.8889 10.7755 -20.0049 9.96635
37 2 3.06724 9.20815 14.1989 2.53087 -16.2834 1.57772
38 2 2.24415 1.28826 12.1011 12.2906 1.36374 -9.6163
39 2 12.4121 12.0187 15.0829 2.29806 -5.43364 -0.137174
40 2 9.45585 9.77394 10.8943 7.64616 -10.6805 -9.9326
41 2 7.88586 2.76742 13.7659 -0.349389 1.04057 -7.32552
42 2 10.3738 1.69901 13.4896 5.08223 2.5818 -1.74967
43 3 5.17117 5.08227 9.26367 -2.75739 -6.94973 -5.95926
44 3 9.6676 5.88489 11.309 -6.80231 7.6758 -9.67013
45 3 1.08547 6.84228 14.0199 2.96284 -7.40395 -12.0087
46 3 7.21746 4.03085 13.4927 -11.0094 -1.57038 1.23717
47 3 4.13139 6.8753 11.0063 1.39241 5.313 6.46012
48 3 5.40727 1.99616 10.855 -4.20898 -4.79706 5.24514
49 3 4.38431 2.50672 14.0246 9.2966 8.7569 6.31379
50 3 10.6662 8.85707 10.9858 5.20428 2.9543 3.41462
51 3 5.24501 4.77317 11.7907 -0.466737 -3.94306 -3.85982
52 3 5.12571 9.50248 11.1238 -5.37545 4.44243 0.457786
53 3 11.4751 2.72885 13.5621 3.82303 -3.38109 -0.546805
54 3 3.01142 8.20171 12.9891 -0.729706 -8.12889 -4.15456
55 3 10.6949 0.804599 12.3531 3.88918 4.75984 5.40442
56 3 9.21852 2.60275 13.1534 6.10778 -4.12969 0.532934
57 3 9.02449 7.76793 13.6521 -6.26383 -5.36289 -12.9395
58 3 11.4884 11.4306 13.9399 -9.46305 12.5668 10.6753
59 3 2.32932 10.751 14.4785 9.78944 -13.8789 -11.252
60 3 3.36561 0.307373 15.2923 -1.12789 -2.25946 -3.26041
61 3 8.02336 9.00063 10.9462 -7.77645 0.968073 -1.85882
62 3 6.71797 7.14581 12.5714 4.69282 4.72715 6.27962
63 3 0.220175 4.03432 9.35733 -4.76047 0.173257 -2.348
64 3 0.556072 8.66331 10.808 -2.12145 -2.09744 1.67401
65 3 1.35371 0.0953292 12.1068 1.61907 -2.33169 -0.527342
66 3 2.59589 8.46667 15.3519 -12.4372 2.85248 11.1641
67 3 5.73289 0.464021 14.5355 -6.15375 -3.34779 -4.19766
68 3 6.26014 11.5851 12.1822 4.24006 -9.02928 2.57192
69 3 12.0856 8.11924 13.4758 0.165363 9.92392 -1.52894
70 3 12.1052 6.47279 15.4212 2.38815 -1.05892 7.52375
71 3 12.8277 1.91966 10.642 1.92298 4.42461 2.98439
72 3 9.50602 5.0581 15.0907 -1.37644 6.16555 3.19807
73 3 6.39364 10.9992 9.59762 -3.11327 10.2999 -4.69663
74 3 2.86671 4.78313 10.5017 -6.20444 -1.36792 -14.1278
75 3 11.0081 3.59685 10.6034 1.18549 5.449 -7.81548
76 3 4.32415 11.9802 10.8632 2.32927 9.25178 -3.6195
77 3 9.42834 10.6235 12.1626 7.97168 9.6826 -10.0302
78 3 1.54858 2.09037 13.231 -7.95386 2.77518 -7.90949
79 3 9.74529 10.6719 9.6717 -2.31834 2.53376 -6.80742
80 3 7.37855 9.47428 13.7634 -3.6654 3.32374 5.68379
81 3 8.23518 0.299743 10.944 -13.1078 0.529199 4.39952
82 3 8.22334 12.4909 13.9993 -3.75279 -0.948732 -0.488165
83 3 7.12334 1.63275 12.794 12.069 -1.75988 -5.26112
84 3 2.76674 2.25065 11.0676 4.54183 -7.89372 12.3955
85 3 7.59419 2.35381 15.2262 -9.40964 0.226123 1.05647
86 3 11.9279 5.57783 13.1801 0.0866872 0.637518 -0.182619
87 3 12.7218 10.6104 12.1114 -1.72052 -3.07586 -3.57837
88 3 11.8188 12.549 10.2175 1.34109 5.64035 6.45757
89 3 0.34965 3.88901 11.928 0.141623 -6.34674 -6.96402
90 3 6.87635 7.46525 15.1077 -2.44443 -1.48911 4.41198
91 3 2.91306 4.73484 13.397 7.51017 -3.01365 8.28498
92 3 13.0661 0.0324562 14.4121 6.38355 2.38339 -10.4072
93 3 4.48497 10.0394 13.9281 5.04224 -1.26633 -8.82506
94 3 10.4011 1.11148 15.0734 -3.82476 -3.6764 3.22334
95 3 3.61908 0.402816 12.8904 2.26445 4.78524 -2.57529
96 3 2.04927 10.6105 11.3887 -5.54564 -6.677 0.526893
97 3 8.61611 3.61564 10.9486 3.69083 3.50827 -0.817503
98 3 0.164878 10.7866 9.65249 -0.673325 9.83794 6.20496
ITEM: TIMESTEP
760000
ITEM: NUMBER OF ATOMS
98
ITEM: BOX BOUNDS pp pp pp
-8.8911966683022925e-03 1.3096573196668459e+01
-7.6514174794493073e-03 1.3153235417479360e+01
9.2127394064100372e+00 1.5381309593589961e+01
ITEM: ATOMS id type x y z vx vy vz
1 1 3.26939 3.40039 10.2268 10.1446 -0.340238 -11.7631
2 1 6.11555 11.7615 14.3532 6.24309 -2.03934 -3.03308
3 1 8.76926 11.6165 12.4662 2.60966 0.843638 8.37285
4 1 11.9778 7.33304 10.9765 -0.661304 -2.79843 2.31161
5 1 12.4204 1.73462 12.2004 -1.95879 17.4672 -7.66956
6 1 8.62263 3.18048 14.6478 -7.29364 11.9434 19.7363
7 1 12.3382 12.3054 12.1604 -9.95132 3.43472 -0.599011
8 1 0.538805 5.99334 13.0523 16.6282 3.15579 -1.70219
9 1 9.68958 9.39407 15.0267 0.816353 -3.96746 3.84729
10 1 10.8021 9.77827 12.7063 13.3605 5.36621 11.6091
11 1 1.5604 7.18241 15.0851 -3.31567 -21.8799 -3.50634
12 1 9.14255 1.2417 11.887 3.95119 5.10919 -3.15613
13 1 4.87951 8.69198 12.1253 -10.2047 -1.84485 3.92958
14 1 0.815713 3.89977 11.2122 -3.7271 13.7629 -14.2022
15 1 1.29368 10.3371 13.8161 6.73223 -0.0197704 -6.92263
16 1 9.16347 6.28435 10.5704 -1.36337 13.2412 -9.94969
17 1 6.80289 6.51377 11.9293 -7.21408 10.9882 -13.2454
18 1 4.0096 6.63644 14.0496 1.66567 -5.34887 6.00016
19 1 5.03152 1.65027 11.2543 11.7753 3.69971 -6.83768
20 1 3.3876 12.2227 9.69775 6.11423 6.07379 2.79729
21 1 6.86375 9.32943 9.70326 -9.15355 -17.2137 4.22002
22 1 11.2949 4.63238 14.591 -17.0665 -5.09836 0.347988
23 1 5.30414 5.0497 10.1433 6.32107 -0.179464 1.06179
24 1 3.45588 11.9055 12.5679 -7.0435 14.1947 2.29043
25 1 3.49972 3.49328 13.5598 3.27901 -3.31677 0.0679289
26 1 1.66027 0.602432 13.8785 1.46232 8.78792 7.28137
27 1 7.80717 0.164871 9.62181 -1.94534 8.19563 -8.0842
28 1 9.3487 6.01686 13.3407 -0.298994 -4.69467 10.7633
29 2 4.92527 1.10692 14.4041 13.2939 4.0774 0.603726
30 2 0.706342 3.14193 14.2074 -18.2335 -6.70992 -7.44357
31 2 11.5176 4.71307 11.3452 -13.5203 -14.8336 -3.53813
32 2 6.25882 12.264 11.2939 -4.53078 -13.7841 3.36944
33 2 6.98661 6.7695 14.8308 -17.0201 8.60255 2.73508
34 2 3.08407 5.95272 11.5707 -4.38507 -5.8532 -1.95118
35 2 0.222399 10.2338 11.1935 5.75405 -3.20639 -4.53861
36 2 12.0985 7.90995 14.3638 23.5989 3.59164 -7.9267
37 2 4.07507 9.62117 14.5707 2.49945 -1.9151 -1.43395
38 2 1.34348 0.709528 10.8118 -8.89072 -8.00175 -2.59075
39 2 11.9426 11.6178 14.9773 6.50411 3.49956 3.80627
40 2 8.39496 9.03249 11.8265 5.56265 18.8075 -13.725
41 2 7.60229 3.37887 11.5995 10.153 -12.6604 -11.8059
42 2 10.1369 0.287376 14.3279 6.48752 -2.75008 -0.251161
43 3 2.14088 5.95711 10.3109 11.6643 5.23397 -7.71969
44 3 12.6961 5.71868 11.6517 -1.15696 -3.06561 -13.3589
45 3 13.0822 6.60693 14.5585 8.44249 6.22464 2.07558
46 3 7.86458 2.52132 12.858 2.20172 1.58578 6.03762
47 3 2.35015 6.63879 12.7248 -14.4973 7.82912 -3.37085
48 3 8.3512 2.67651 10.3186 4.72177 -2.95876 -6.17796
49 3 4.3741 2.05764 9.34242 -1.69158 -2.42062 -0.245009
50 3 6.64047 8.90355 11.6116 -0.169252 -3.62103 -3.88859
51 3 4.38395 6.73163 11.6124 9.0353 4.88425 4.56749
52 3 1.96767 13.1207 12.0954 4.83013 8.93365 -10.8873
53 3 9.78223 1.71253 14.7391 -4.46451 -4.59788 17.021
54 3 3.78521 9.64055 13.1145 0.369449 -6.59283 4.47312
55 3 10.9157 0.179695 12.9388 7.65393 -6.21219 -1.04591
56 3 8.05851 4.92092 12.0075 -3.075 -4.65577 -5.24096
57 3 7.65615 8.19457 14.7497 11.3561 -0.155733 -5.12179
58 3 10.9008 10.2339 14.5317 -8.61474 5.68125 11.1188
59 3 2.9176 10.6205 15.0274 5.09413 1.14392 12.6987
60 3 3.97366 13.0256 14.2356 1.23253 -10.6682 0.778019
61 3 8.93941 10.0228 12.8819 -2.83828 16.4714 -4.88258
62 3 5.87967 6.62406 13.5848 12.1776 6.06941 15.1176
63 3 0.535322 4.15529 13.1405 3.58837 -12.1665 -0.633555
64 3 -0.0330338 8.65223 10.9608 -5.27564 -8.40127 -4.54396
65 3 12.9871 0.386446 11.0379 1.20923 4.14662 7.31885
66 3 3.8605 8.15633 15.0571 -13.3496 -9.55294 -4.69612
67 3 6.34666 0.672525 14.5703 -5.05842 -7.11397 -0.498188
68 3 4.54135 12.3455 11.2508 -3.30051 2.72802 -2.11248
69 3 0.217021 8.8563 14.1426 -6.32004 -9.04382 -0.934142
70 3 10.9356 7.8111 9.21403 0.93669 -2.48855 -8.0804
71 3 2.12293 2.54606 14.3488 -1.98187 3.74494 4.49756
72 3 10.4853 4.94929 10.2087 -4.42512 0.946917 -0.738695
73 3 6.49367 11.5824 12.7417 10.1429 -7.90963 -9.4714
74 3 3.26045 4.36393 11.8049 -4.63445 -5.8674 5.891
75 3 -0.0194302 1.51035 13.8511 -1.27422 1.74622 1.34476
76 3 6.69619 11.6273 10.0558 -4.45964 -5.93439 0.662666
77 3 8.85724 7.52412 11.8885 -2.61882 -0.376191 10.713
78 3 1.58163 2.26411 11.1555 -1.75139 -1.87776 -6.0598
79 3 8.82259 9.78512 10.5856 8.0245 10.8708 -5.68667
80 3 6.30564 6.55864 9.99534 -1.26555 -3.81792 -4.29136
81 3 9.10927 12.8636 10.9335 -0.618148 -1.02333 1.94412
82 3 6.61991 0.688487 11.2726 -0.768846 1.37144 -0.00224665
83 3 6.3141 3.71323 10.7444 -3.24389 -5.10023 5.16623
84 3 2.15571 0.453067 9.53891 -8.99257 1.47827 3.94445
85 3 10.8468 5.12827 12.9013 -1.80116 0.102937 -6.59036
86 3 11.3103 7.74999 12.9311 0.573437 4.59863 6.81712
87 3 12.0849 10.5723 12.0651 5.00048 -8.64622 6.49509
88 3 11.0852 12.6041 15.522 2.7391 5.60124 1.34725
89 3 -0.0583871 3.69123 9.21355 -7.49953 2.69418 -1.71897
90 3 8.12775 5.78675 14.6944 -4.39826 -6.63712 4.60053
91 3 3.92363 4.57775 14.94 3.89996 7.8494 3.60939
92 3 13.098 12.0871 13.8744 2.93194 -1.0957 11.0398
93 3 5.50934 10.0052 14.9363 -4.3606 0.0715189 -8.03849
94 3 8.79469 12.5891 14.1024 -4.99299 3.14626 1.62516
95 3 4.6901 2.10148 13.1707 2.27238 4.99063 -3.54655
96 3 1.43808 10.7132 11.869 -0.247358 6.42165 -1.81345
97 3 11.9327 3.23799 11.5932 -0.960752 4.39165 -4.78828
98 3 13.0612 10.9319 9.94443 2.93941 4.79702 8.68383
ITEM: TIMESTEP
780000
ITEM: NUMBER OF ATOMS
98
ITEM: BOX BOUNDS pp pp pp
-8.8911966683022925e-03 1.3096573196668459e+01
-7.6514174794493073e-03 1.3153235417479360e+01
9.2127394064100372e+00 1.5381309593589961e+01
ITEM: ATOMS id type x y z vx vy vz
1 1 4.99401 2.00704 11.652 -1.25747 3.96197 8.19315
2 1 8.58718 9.42829 15.0004 -10.4788 5.8953 -6.29396
3 1 8.02379 1.53161 9.85972 2.69489 2.99278 15.0279
4 1 4.89199 4.63395 13.8073 5.119 9.73202 13.686
5 1 10.5884 1.88367 12.661 11.9894 9.71186 -27.8039
6 1 7.48515 4.0643 15.031 2.63358 5.93691 0.735323
7 1 12.021 8.09177 11.9447 14.0849 -6.61543 -4.2541
8 1 12.6445 5.9864 9.94306 0.0016695 26.1023 1.36697
9 1 9.6285 11.3937 10.2975 11.6195 10.4504 -5.33362
10 1 3.22901 3.75292 10.5626 9.57883 -5.00111 -5.83536
11 1 4.6687 11.7479 12.3715 3.89416 7.80979 4.60784
12 1 12.3918 1.49699 10.3551 -17.1516 0.824313 -6.12338
13 1 4.37899 12.2214 9.5862 9.5983 2.04027 -7.81146
14 1 2.9179 2.57169 14.2753 16.7148 22.8812 9.46959
15 1 0.787136 7.94233 14.0624 4.44398 -11.4304 -13.379
16 1 9.14311 6.8494 10.4991 -7.41649 -6.66038 -2.85567
17 1 6.13245 6.366 11.1632 -5.76421 -7.44458 18.4819
18 1 2.40818 6.00636 15.0914 -9.74262 -1.1078 -6.30961
19 1 11.4097 11.5825 14.8369 -11.9271 8.77438 1.00466
20 1 0.279778 0.432043 13.5302 2.29044 2.12611 -7.63327
21 1 4.51391 8.2553 12.8128 -4.38957 -3.13182 -2.53071
22 1 10.4038 4.43946 15.3009 -12.9782 -5.93583 10.4977
23 1 8.04919 1.74108 13.0106 10.4574 -0.0221019 8.90171
24 1 1.15017 11.1218 9.7715 6.80579 -6.81187 -22.5273
25 1 0.580982 3.3697 11.7391 3.55604 -22.0707 -11.4441
26 1 0.770179 10.6832 12.9768 9.37775 -5.13223 -17.5065
27 1 5.42898 9.52034 9.65168 -11.9616 -5.11407 -14.1159
28 1 9.03086 6.6478 13.2511 -10.3995 -14.0797 4.08159
29 2 5.25927 1.28396 14.418 5.33936 -6.7422 3.43625
30 2 0.22827 3.12519 14.671 2.61186 -2.46114 8.92042
31 2 11.2307 4.9449 12.2072 -14.4252 -11.6334 -3.77063
32 2 7.10228 12.9134 11.3559 -12.2175 6.17254 10.7096
33 2 6.31875 6.71111 14.5709 -0.300503 0.598297 -11.058
34 2 2.65705 5.83691 12.0197 -1.55239 -19.6425 2.28452
35 2 1.69807 7.99781 10.8483 5.05914 -5.28919 -3.72218
36 2 11.068 8.59854 15.3486 1.67044 -2.20547 0.172166
37 2 3.02651 9.9236 14.023 -7.91627 5.78117 -3.53061
38 2 2.46032 0.443993 11.5042 4.17634 -4.52774 6.49837
39 2 11.7016 12.4152 11.2937 3.0181 10.8136 18.4617
40 2 7.82193 9.19972 11.9702 3.11396 -2.4565 -1.54197
41 2 7.74613 4.19785 11.7327 -6.98758 -11.7856 4.80476
42 2 9.19617 12.2623 13.1437 -4.51144 2.91487 14.064
43 3 1.65723 5.11524 11.1673 0.277572 -7.23139 3.45642
44 3 12.348 6.13043 11.9593 3.6553 9.67921 6.52741
45 3 10.8991 10.0128 9.78067 -8.87181 1.06168 -5.65686
46 3 6.99174 4.05819 13.2039 -3.0475 -1.28096 -0.528716
47 3 2.44876 6.33743 13.3775 0.560561 -0.974851 -11.5651
48 3 9.11233 3.02331 12.217 10.5972 -8.54438 -2.55836
49 3 4.68217 1.47509 9.63983 -0.259116 -4.15303 12.8114
50 3 6.2179 8.55359 11.7365 -6.03472 2.01482 -4.82215
51 3 2.88061 7.1752 11.1073 9.32068 3.33922 -2.66496
52 3 3.45877 12.5463 11.0776 6.51732 0.944217 -3.66497
53 3 9.40161 0.55481 13.3258 4.59838 4.59608 -8.51236
54 3 4.05698 10.0432 12.6983 5.24948 2.48396 -8.91049
55 3 10.298 11.7442 11.9516 2.56773 -5.20163 -1.16797
56 3 7.89278 5.77884 11.5268 3.96754 -2.21583 2.35507
57 3 6.44043 8.09415 15.2145 1.01231 6.15689 -4.6458
58 3 11.2076 13.1114 9.9587 1.779 -3.78466 -0.82855
59 3 3.05505 11.242 14.9025 -6.39672 9.36543 1.97137
60 3 5.26681 12.9075 13.8412 -1.61619 -5.42881 2.96512
61 3 8.81432 8.06089 11.9619 6.21723 -5.38591 -2.64389
62 3 5.29269 6.80312 13.2643 -1.69942 6.97442 9.54991
63 3 12.4824 4.4192 14.8317 1.50872 -5.862 1.91309
64 3 1.03756 7.07081 9.5705 -3.00575 4.28941 4.91662
65 3 2.27217 0.241031 13.1293 -2.62222 3.10376 -10.4785
66 3 1.65903 9.37086 13.7532 4.21888 1.73332 9.04508
67 3 6.78844 1.81004 14.5556 4.71967 -11.7641 -14.767
68 3 6.70101 1.31903 11.7811 -0.991947 7.83054 -0.746825
69 3 11.631 7.62777 10.1717 3.80073 3.01052 4.9186
70 3 12.0083 8.52951 13.9976 -4.02775 -3.25451 -12.5095
71 3 0.693502 2.84937 9.93932 -3.61872 0.768581 7.18499
72 3 10.2074 5.39877 11.0442 0.859588 8.58608 4.22037
73 3 5.80222 12.0075 10.9188 -2.88179 -2.37941 2.28296
74 3 4.07722 4.91077 11.6995 4.45269 -5.14103 -0.401573
75 3 1.33439 3.0344 13.5459 0.114743 0.631466 -2.1007
76 3 8.39482 12.8292 10.4348 11.2446 9.06224 3.48935
77 3 8.05104 10.0548 10.6151 -11.4355 3.82 -1.12217
78 3 2.91427 2.02901 11.387 -4.47217 9.1463 5.77555
79 3 7.77836 9.83974 13.371 -3.68456 -7.94322 10.3524
80 3 5.51567 5.91881 9.51521 5.17675 -0.992821 6.22688
81 3 9.35121 2.72372 9.26863 4.04899 -0.14048 -2.59706
82 3 7.56591 12.2677 12.7052 -7.39765 -4.15033 -0.258073
83 3 7.01024 3.75992 10.6146 12.1558 -1.76651 0.246083
84 3 1.27284 0.32337 10.4439 -18.4271 -7.03932 1.39514
85 3 10.4711 5.39375 13.4245 -9.29225 1.80333 2.52576
86 3 9.5898 7.95973 14.9185 -0.516982 -3.16783 -1.74467
87 3 0.755569 7.90821 11.9912 -0.629483 -3.07555 0.619473
88 3 11.9986 0.642396 11.9232 1.45695 5.38839 6.06816
89 3 12.4514 1.81979 14.5503 3.71599 -1.84458 1.40278
90 3 7.77284 5.943 14.5657 -3.98591 7.02439 4.35865
91 3 3.58036 4.01824 14.9218 -0.171939 -3.85517 4.01574
92 3 -0.0230581 11.5516 14.4897 0.345488 15.7116 -7.04309
93 3 3.89511 8.89812 14.8525 0.712681 -2.12039 -0.44971
94 3 9.53006 11.4308 14.3648 0.897791 5.38021 1.20925
95 3 4.56634 2.13869 13.4174 -7.68365 -3.00696 -0.950551
96 3 1.73669 9.54161 10.65 3.11798 -9.86937 1.96485
97 3 11.8625 3.52366 12.0343 -1.01526 -4.89825 1.36979
98 3 12.8126 11.5514 11.6431 -2.02483 4.93636 -9.48612
ITEM: TIMESTEP
800000
ITEM: NUMBER OF ATOMS
98
ITEM: BOX BOUNDS pp pp pp
-8.8911966683022925e-03 1.3096573196668459e+01
-7.6514174794493073e-03 1.3153235417479360e+01
9.2127394064100372e+00 1.5381309593589961e+01
ITEM: ATOMS id type x y z vx vy vz
1 1 6.0047 0.932914 11.0634 7.87358 10.9366 8.89809
2 1 7.41662 0.669834 13.5681 3.55228 -2.03401 -21.2383
3 1 8.06822 10.3935 9.11982 -3.37328 -2.85978 -1.35236
4 1 6.5492 8.6492 11.9941 -12.3946 4.03575 14.9112
5 1 7.6292 3.30154 9.55795 12.4615 -4.20104 13.9139
6 1 5.35158 5.50255 13.7337 7.52644 -8.25934 -0.861264
7 1 10.0309 7.0895 10.8055 3.58873 -20.2185 -20.6332
8 1 12.8236 4.57572 14.4605 -14.2875 5.47825 4.09294
9 1 1.6769 10.4367 9.32099 6.79583 -7.15697 9.36846
10 1 1.88472 4.43132 9.79195 -0.452772 8.7994 -16.5438
11 1 6.0995 11.2812 11.3485 -5.24243 -1.71818 -3.66861
12 1 10.5214 1.59897 10.4956 -5.85637 -12.2785 3.18589
13 1 3.43509 2.32152 12.6035 16.3371 -4.78139 1.84484
14 1 3.63775 12.0841 11.2277 31.9835 -10.4838 -18.7991
15 1 4.23073 6.13732 10.7448 -7.44574 2.31364 3.99071
16 1 8.65348 4.57653 12.5044 -12.6158 -3.20239 -0.648659
17 1 2.76761 6.26812 13.5582 -4.85361 6.91658 2.39585
18 1 6.94566 5.86079 10.2936 16.3916 15.1645 -7.79216
19 1 0.45298 0.856964 10.9826 -12.371 -7.56357 -14.3977
20 1 10.9426 12.642 14.8744 6.52176 5.93021 4.7976
21 1 8.86321 7.59577 14.1159 -4.56185 7.70719 -11.6043
22 1 11.944 7.39659 14.6212 2.03528 -13.4389 8.38352
23 1 5.25711 3.43527 15.3975 -7.57584 11.2273 17.0075
24 1 12.7674 7.33011 12.158 -5.31326 -7.33144 -8.7967
25 1 10.9966 2.37883 14.1746 -5.91889 -1.09917 5.45644
26 1 0.647277 12.8281 13.7708 6.02306 -7.38993 18.2975
27 1 4.25168 9.90238 14.1036 3.57543 -6.35114 -2.93764
28 1 12.0563 10.3665 13.6269 8.63874 8.40864 2.16135
29 2 4.62799 12.4427 14.8735 -1.17131 3.78537 1.38448
30 2 11.4014 4.51233 11.2834 7.95724 0.778425 -19.7501
31 2 9.86615 5.09272 14.8191 -8.62961 0.660793 7.50713
32 2 8.77363 0.0511718 10.93 9.11065 -2.85412 -8.45383
33 2 5.99311 8.21117 15.228 7.20126 -0.231707 0.0147207
34 2 0.780162 3.04857 12.8833 -10.319 -5.28262 -1.08968
35 2 1.49168 6.93909 9.47606 -4.20152 -5.58363 -5.35653
36 2 10.9891 9.334 10.1299 6.85429 -6.25311 -13.1561
37 2 3.5528 9.317 11.5244 -15.1571 -7.25738 1.19146
38 2 2.82986 1.35081 9.75221 11.3838 -0.0203725 -17.895
39 2 1.29693 10.4927 12.4553 10.2955 1.19753 8.28155
40 2 8.93306 9.98316 12.1338 0.868786 -4.47087 -8.02337
41 2 6.50651 3.04616 12.7702 12.546 4.45725 -15.5913
42 2 11.5117 12.6463 11.8373 -16.5633 9.55226 4.48877
43 3 1.48802 3.71156 11.6598 5.08804 0.822724 3.51331
44 3 11.2638 5.62763 14.9425 0.479369 -3.85405 2.81489
45 3 11.3975 10.4543 15.2143 -6.60748 -5.41939 3.86699
46 3 5.31179 2.09432 12.4469 -4.07726 -4.59294 3.00772
47 3 1.13546 3.47068 14.2644 -3.78713 1.11536 -5.15332
48 3 7.77438 2.29812 12.9774 -6.72249 -10.2848 7.86616
49 3 3.70005 0.548502 14.9094 5.92136 7.12042 -8.75085
50 3 7.71663 10.3463 11.2928 -0.512496 -3.22529 -0.49535
51 3 2.88022 5.89484 9.16521 -10.1946 -5.12388 -1.04383
52 3 3.31117 3.01849 9.50185 3.49754 1.62311 4.12806
53 3 11.8999 1.1359 11.8452 -6.07608 -7.22504 -3.30424
54 3 5.10232 9.78482 11.853 -7.68503 11.2253 -1.1645
55 3 12.3919 12.2421 10.7148 0.334257 -0.281973 4.196
56 3 5.92375 3.94658 13.8792 0.307697 4.98714 3.37365
57 3 6.56753 9.60968 14.9158 1.31941 5.27814 4.88431
58 3 2.06728 11.9056 12.4285 5.32917 9.90162 3.92816
59 3 2.43473 9.39932 12.7825 0.102928 -0.201097 -0.0744689
60 3 5.28921 12.8638 13.5156 0.198106 5.95913 7.65293
61 3 8.81279 8.44858 12.5734 -12.2458 0.276031 -3.95621
62 3 6.44985 7.28566 14.0467 -0.940682 -10.5869 3.68564
63 3 11.3563 5.99788 11.6706 -2.23498 -6.46485 -2.09649
64 3 0.556027 6.34749 14.5881 -11.0886 3.42393 1.90457
65 3 1.27455 1.55088 12.6424 -7.57024 9.56274 8.36363
66 3 3.17373 10.3738 10.644 -8.37934 -1.31228 4.38634
67 3 3.46462 11.3455 14.5931 5.16345 -1.45807 4.44431
68 3 8.8415 1.64728 10.5292 4.67552 2.40672 -8.86241
69 3 11.847 8.14178 10.1726 -0.579598 1.20974 1.95089
70 3 11.7582 8.4382 13.1037 -4.40521 0.994842 -9.84647
71 3 12.1241 3.59147 13.0865 -2.11137 -7.60543 7.56761
72 3 9.23471 5.83618 13.5411 6.86281 7.55151 -8.1376
73 3 7.3734 13.0045 11.5954 -1.72909 -2.5528 5.75026
74 3 3.82349 5.48532 12.611 1.44875 3.56687 -5.42823
75 3 12.3167 3.95513 10.1852 6.00099 7.79944 -9.74183
76 3 8.92802 12.3149 9.75484 5.89776 -2.42959 -0.541439
77 3 10.3635 10.0694 11.4395 4.92668 3.90002 -3.64895
78 3 1.37579 0.809998 9.5261 -3.76275 0.692726 9.90872
79 3 8.65981 10.8399 13.3847 4.78333 3.7271 -5.20926
80 3 4.53914 8.48558 15.0378 -0.0794971 0.322647 3.37418
81 3 6.3092 1.96334 9.43707 -2.02691 1.57632 5.73446
82 3 9.87184 13.0074 11.9356 8.29289 -5.46899 1.60588
83 3 7.13416 4.09718 11.4192 0.225158 4.5574 -3.59796
84 3 3.54078 0.838162 11.2234 -3.09459 -1.66454 8.76395
85 3 8.80284 5.99563 9.82516 4.41796 -2.33419 6.32722
86 3 9.55193 8.58104 9.63337 4.98642 5.5204 -14.0359
87 3 0.784528 6.5945 10.8626 -7.84158 -3.90045 -4.86008
88 3 0.928164 10.8909 14.0798 6.91411 -3.65519 6.789
89 3 10.0344 3.85593 11.5121 10.0404 15.0162 -0.39922
90 3 6.37047 7.6935 10.4053 3.90679 -15.79 13.2274
91 3 5.54285 4.95737 9.71405 5.15362 -2.02672 -5.88233
92 3 11.4663 1.16812 15.177 0.862094 -4.31304 -3.37385
93 3 3.52643 7.83132 11.2179 -1.80387 0.0479062 7.36416
94 3 11.6955 12.0641 13.1716 -9.97798 6.25641 -2.04535
95 3 5.62344 12.288 9.79805 -4.79008 -11.469 5.5624
96 3 1.78851 8.46551 9.26711 6.78291 6.08012 -12.3724
97 3 9.37172 3.66428 14.7354 1.62092 5.85207 1.23702
98 3 0.380695 10.059 11.2974 -1.38363 2.55304 2.22428
ITEM: TIMESTEP
820000
ITEM: NUMBER OF ATOMS
98
ITEM: BOX BOUNDS pp pp pp
-8.8911966683022925e-03 1.3096573196668459e+01
-7.6514174794493073e-03 1.3153235417479360e+01
9.2127394064100372e+00 1.5381309593589961e+01
ITEM: ATOMS id type x y z vx vy vz
1 1 5.46461 5.98384 15.1484 -15.3611 -6.27242 -10.5013
2 1 9.97602 11.0003 9.65922 0.638091 2.84095 -1.767
3 1 9.40197 0.715448 11.0256 5.38565 -0.966397 -3.58155
4 1 10.1778 6.21281 10.2229 13.8405 13.0328 -7.62608
5 1 0.192567 12.3 11.1855 5.29414 3.66431 1.86627
6 1 9.05016 6.17567 13.2333 5.59801 -9.94307 4.49423
7 1 10.1413 3.52931 10.4581 0.953831 4.88429 -2.58825
8 1 0.117239 2.12049 11.4488 -2.21036 9.33857 9.23688
9 1 1.99264 9.95132 11.1653 1.53818 -14.7782 2.53476
10 1 3.32767 2.86068 11.8744 -2.81433 2.01202 -10.1305
11 1 5.41961 12.9893 12.949 10.469 -14.263 -17.6079
12 1 3.48862 12.7935 10.4238 -4.88315 2.07351 -22.0706
13 1 4.25305 9.87128 15.1575 -5.79005 6.14105 -13.9493
14 1 6.81774 6.75892 11.5918 -5.99299 6.98225 13.2406
15 1 12.6626 5.81392 9.61553 10.8099 2.33916 4.29973
16 1 8.58515 0.744446 14.5578 -8.43766 6.73044 6.79469
17 1 2.65847 5.48764 14.0816 4.93233 14.7697 -16.6732
18 1 4.89044 3.06976 14.9433 -13.8343 -5.2359 -4.67219
19 1 7.99393 11.757 12.096 1.36684 1.24812 15.5986
20 1 0.291884 10.8841 14.1919 -12.1906 4.02239 5.02088
21 1 10.5248 8.11838 13.5689 -7.33546 3.06812 -7.40312
22 1 4.09454 7.44958 12.9067 -8.28411 -3.32451 10.6725
23 1 6.81921 2.26236 12.2235 -9.71477 0.192603 -5.08479
24 1 11.0923 5.59291 11.9991 -6.71019 -5.51411 -19.442
25 1 6.80096 9.94685 9.85528 -13.3965 -9.97115 5.16299
26 1 12.0956 3.23155 14.6502 1.48472 -9.58746 -3.00014
27 1 2.38389 5.67699 11.0814 -11.5152 26.2764 -10.6792
28 1 0.177519 7.20429 12.461 -5.11163 13.054 13.113
29 2 2.8994 11.6096 13.5715 -11.3936 3.64935 4.25584
30 2 9.40427 3.25651 13.3593 10.9428 1.58127 3.2905
31 2 7.61315 4.26519 14.9826 12.3875 1.71022 -6.43206
32 2 6.44896 0.457489 9.80038 2.46454 23.89 -17.4057
33 2 8.27214 8.23749 15.3827 1.11847 -4.01449 11.8862
34 2 0.35262 4.62678 12.9134 4.87468 -3.68625 1.22282
35 2 3.22256 7.85795 9.60216 -4.79889 1.56453 0.185624
36 2 12.3333 8.72091 10.0637 5.6987 17.1923 -2.28633
37 2 6.3589 9.29777 13.186 1.79142 -11.4194 19.7563
38 2 1.864 2.65344 15.3886 -1.11874 8.11132 10.6646
39 2 0.962293 0.592547 13.4763 9.85331 -1.12223 15.8452
40 2 10.7171 10.6323 12.0229 -9.10606 8.27261 17.7364
41 2 5.14084 4.52307 12.3903 0.988314 -7.38402 5.15659
42 2 11.5224 0.137267 15.2298 7.30196 7.9497 -1.46417
43 3 0.324786 5.52787 11.4939 1.8369 -0.527847 6.39292
44 3 8.62257 4.07456 9.94345 2.90151 -8.49128 1.21805
45 3 0.340119 8.70148 11.1381 9.49982 1.87489 -2.76265
46 3 3.8708 4.32229 11.328 2.2072 -0.375695 3.57868
47 3 0.303067 5.36686 14.117 3.88707 5.29093 -7.71956
48 3 5.19801 3.06524 12.9535 -16.7443 -1.08812 3.64679
49 3 2.62456 2.10656 10.3619 5.9055 3.23276 -7.81155
50 3 9.7841 9.70464 13.0511 -10.3084 -0.867368 -1.31818
51 3 3.12875 9.03531 10.5903 -9.70135 -1.83628 1.12876
52 3 2.95324 3.72344 14.8467 -0.497313 1.24543 -8.50945
53 3 11.1434 0.968204 10.2266 -6.88965 9.38697 5.34407
54 3 6.73865 10.4148 12.2042 5.04065 -5.02968 5.85777
55 3 10.2196 12.6501 14.6771 2.03845 -11.1303 7.73078
56 3 4.62033 5.60519 13.5376 2.75734 0.051912 1.29326
57 3 8.73846 9.65845 9.54085 13.4311 -0.360837 0.845182
58 3 12.5936 0.905654 14.1566 -2.39119 -6.22429 -0.358001
59 3 5.8414 9.88344 14.502 3.27493 -7.50843 -0.326856
60 3 3.79093 12.4485 12.6752 -6.56396 -12.1072 6.79997
61 3 11.6744 6.90178 13.1348 10.7321 7.45061 -3.61892
62 3 7.8383 8.82278 13.7275 0.382555 -0.626131 1.02373
63 3 10.0241 4.56015 12.827 -7.37518 -0.276916 -8.02291
64 3 11.4115 4.71416 10.409 10.1611 0.478347 -5.46954
65 3 1.56729 3.75723 12.5394 7.76475 9.84564 3.06609
66 3 2.10445 11.7723 10.7238 2.43399 5.38724 -5.42429
67 3 2.48232 10.1174 13.2107 0.988059 -5.15827 11.6323
68 3 7.9304 0.857827 9.9473 2.26778 3.49078 1.07426
69 3 11.715 7.44755 9.64733 -7.54429 10.6288 -0.845881
70 3 2.5024 6.58765 12.6309 -3.09573 7.22545 -4.48883
71 3 12.3734 3.52711 12.7062 -7.05041 0.892174 4.74322
72 3 7.42082 5.54625 14.2049 -5.47141 5.45519 -3.16837
73 3 5.6048 1.00871 11.12 -1.38609 -1.36596 1.07312
74 3 9.56151 7.13054 11.8729 2.18407 -3.46582 -3.43612
75 3 9.68762 2.15955 12.0337 -1.90599 1.02668 -6.85612
76 3 6.51263 12.0636 9.99579 -7.78653 -2.44451 -1.99295
77 3 11.1166 9.56518 10.7679 -3.93452 -11.6641 -11.9681
78 3 1.95219 1.61269 14.0539 -3.93369 -2.52868 1.94427
79 3 12.2218 11.1534 12.6111 -7.41802 -9.61376 5.10962
80 3 7.0466 7.77943 10.0808 8.05742 -7.18436 -3.14502
81 3 6.16323 0.944545 14.551 -3.0773 0.533523 6.98797
82 3 10.0034 11.7734 11.3135 -1.70388 5.45929 5.99366
83 3 6.37118 5.06059 11.8543 -4.46415 0.629823 -12.4744
84 3 0.491827 2.86979 9.56744 12.9127 1.78094 2.44722
85 3 6.10818 4.14575 9.41309 -8.4227 -2.51524 -0.245544
86 3 12.5661 9.37342 14.7405 4.28922 3.23348 3.30407
87 3 2.24642 6.71797 9.58017 9.58208 0.127455 4.0153
88 3 1.55321 12.3245 13.8607 -4.74636 -7.28252 5.11259
89 3 10.2958 2.70647 14.4932 -3.63299 -2.75001 2.38043
90 3 9.41577 7.21613 14.9276 4.60173 1.25224 0.191461
91 3 4.46358 7.17656 10.1484 -0.258339 -0.953488 -7.89143
92 3 7.75185 0.271068 12.9053 -0.659543 -1.0382 2.58297
93 3 5.77999 8.06048 12.2846 8.53181 -4.21144 -0.0641763
94 3 12.5335 12.1218 9.54401 3.76586 1.81412 0.711907
95 3 3.77405 11.5714 14.935 5.17774 -2.29889 -2.2444
96 3 3.49382 8.15728 14.3431 -8.15036 -1.40158 -4.95818
97 3 8.02167 3.0557 13.8717 7.26952 -5.45855 0.266958
98 3 0.820295 0.575445 11.9942 2.56196 2.38823 1.67115
ITEM: TIMESTEP
840000
ITEM: NUMBER OF ATOMS
98
ITEM: BOX BOUNDS pp pp pp
-8.8911966683022925e-03 1.3096573196668459e+01
-7.6514174794493073e-03 1.3153235417479360e+01
9.2127394064100372e+00 1.5381309593589961e+01
ITEM: ATOMS id type x y z vx vy vz
1 1 3.68672 0.226942 10.8486 -12.0366 11.1968 -4.24277
2 1 6.46975 12.4776 12.4579 3.6431 5.37152 4.04222
3 1 6.52415 10.4278 9.74075 0.27567 0.38891 3.23925
4 1 10.0192 4.08312 9.26315 -6.57883 0.0777945 4.20722
5 1 3.527 3.32355 12.085 -5.64083 19.1666 -26.8663
6 1 11.1442 1.57496 10.1428 -11.0166 -9.79803 4.38461
7 1 11.4347 5.19169 12.5173 -11.9905 4.78781 -5.68025
8 1 0.438915 2.85518 11.9887 5.43877 -0.904982 -12.0278
9 1 3.14272 8.86104 12.8477 3.27575 7.45353 2.46707
10 1 8.33671 9.9261 13.0738 7.37377 3.96117 -2.04159
11 1 10.7007 12.2223 12.4655 -3.71208 -1.51214 -4.48366
12 1 3.26354 10.8298 10.9907 -2.50812 -15.7106 -1.46851
13 1 0.447089 8.35953 14.3583 7.01728 -1.81152 13.1842
14 1 7.98635 5.62152 11.9542 8.43626 -8.98958 -9.41999
15 1 12.4459 4.9374 15.0486 2.52122 2.89534 -2.02906
16 1 4.43641 3.22366 9.52002 7.05489 0.249843 1.75825
17 1 1.11883 7.92584 11.1328 -4.32684 5.3673 -1.21194
18 1 4.27979 5.65521 14.7547 -3.64774 -0.417085 14.5852
19 1 10.4714 9.88663 9.49781 2.38459 27.1317 8.63457
20 1 1.40114 2.08835 15.2894 -0.265241 -7.4445 -0.315455
21 1 9.03462 12.7983 14.1916 -16.4103 1.15163 4.36124
22 1 4.86971 6.74337 11.3181 20.037 13.2724 5.24789
23 1 7.35228 2.27292 10.7325 -0.160121 11.7558 -8.10778
24 1 7.68276 2.32634 14.1842 8.60701 4.6411 0.628407
25 1 6.11188 7.67163 14.2823 -0.664247 5.06774 -20.5833
26 1 0.866863 11.1391 11.5331 -2.20788 1.02881 -2.03215
27 1 0.816677 11.6792 14.5434 -1.75424 5.78432 -12.3486
28 1 9.93615 7.06145 13.9436 -12.5245 -1.43166 3.30784
29 2 3.41329 0.740242 13.7934 10.9196 -18.0447 -4.80433
30 2 10.0205 2.21017 12.6079 -8.73249 5.21087 -17.6792
31 2 7.53149 5.40619 15.2452 15.2226 1.31606 2.9141
32 2 6.03943 0.191686 15.2743 -0.24102 2.13684 6.76416
33 2 8.2926 8.61938 10.5294 -5.50042 6.94233 6.21786
34 2 1.08948 5.6564 12.2993 -0.558014 -13.0027 -7.88008
35 2 3.10582 8.14149 9.60316 8.05331 -9.85958 1.9279
36 2 11.2363 7.40412 10.6204 5.84997 -6.34495 -12.2818
37 2 5.36206 9.71587 12.8032 3.145 -5.09912 10.9303
38 2 1.86589 4.53388 9.88787 -11.2179 31.8639 16.3964
39 2 12.8848 0.462201 13.3809 -1.89677 -5.65933 -11.7522
40 2 11.1772 9.42426 12.6517 -12.5554 -5.74676 1.96976
41 2 6.15181 4.30995 12.1786 -4.55533 0.185547 1.51826
42 2 11.9095 12.3888 9.63674 -8.63151 -5.49203 -4.47618
43 3 0.917382 6.96947 12.7109 -4.73687 -0.786707 5.18943
44 3 7.9009 3.84244 15.1768 -4.57698 1.10008 -2.2929
45 3 11.1562 5.8776 10.6561 8.04251 -3.33795 0.508462
46 3 5.54029 3.55846 10.8086 -2.39781 -5.80005 3.19035
47 3 12.9986 4.69797 12.3848 11.4709 -3.81602 -5.60117
48 3 5.11449 4.20844 13.4746 2.98664 -3.20471 10.5778
49 3 3.37768 4.68339 9.82913 1.8342 -6.05363 3.3542
50 3 9.90258 8.98782 13.6802 3.79669 2.56585 4.45463
51 3 3.22746 9.75911 9.49984 -5.26286 8.59085 9.05863
52 3 1.02017 4.3032 14.8693 -7.07698 0.0671812 -6.79529
53 3 11.3474 13.0596 10.925 -9.25792 -4.00295 1.22808
54 3 5.16275 8.13774 12.7527 -7.04225 -0.10495 -6.36012
55 3 10.8817 11.9063 14.7411 -2.88852 7.60526 -2.17556
56 3 6.10301 5.82071 12.1464 3.70449 -3.57657 -4.70865
57 3 7.92185 8.48953 11.9378 0.317678 3.32943 0.813826
58 3 12.927 0.306939 15.052 -1.19189 6.12211 -3.21245
59 3 5.77523 10.3604 11.3744 5.34115 -4.03683 5.69502
60 3 3.36252 1.70377 15.0404 -1.98477 3.7348 5.0583
61 3 10.9588 5.58599 14.1391 0.64271 1.9825 2.04001
62 3 6.38318 10.0773 13.99 5.79981 7.47151 2.13981
63 3 10.3699 3.6189 12.8295 6.11549 9.91276 -0.78429
64 3 11.7338 3.11069 9.5143 5.76947 9.05487 -5.17846
65 3 2.15804 4.77347 12.8226 -5.05011 -0.693845 4.80135
66 3 1.54759 9.44169 11.9759 2.83897 5.9767 -7.31603
67 3 3.53986 1.3793 12.3781 -0.829924 -4.85988 2.35899
68 3 6.29047 1.80844 15.2952 11.0409 5.67836 9.52824
69 3 9.71841 7.92317 10.142 -3.48981 -3.89181 -8.09159
70 3 2.36636 12.2846 11.3558 1.21799 12.7992 -9.35516
71 3 1.50904 5.662 10.7656 -2.3899 -0.897526 -5.63052
72 3 8.22383 5.9822 13.8235 -6.24918 -4.18368 2.23725
73 3 5.25179 12.6027 10.217 4.19581 5.64377 -1.53579
74 3 8.41385 5.82165 10.1972 6.53135 -1.61328 -6.85215
75 3 9.63052 1.85878 11.0607 -3.88776 -3.86794 2.81934
76 3 7.47309 12.9338 15.2033 5.62933 -3.43443 -2.1745
77 3 11.3782 7.83719 12.2261 -3.92834 -6.20712 5.63448
78 3 0.831293 1.44538 13.4665 2.73118 0.148624 8.04085
79 3 12.5835 9.80539 13.6342 3.71604 0.837428 2.5912
80 3 7.20577 8.14332 9.65875 -1.65794 -3.82616 7.83011
81 3 6.98153 1.11186 12.4118 -5.17324 -3.7474 5.14207
82 3 11.0464 10.4842 11.6861 -2.01856 7.28225 -12.3608
83 3 7.4194 3.61943 12.1861 -2.76468 -0.916532 -0.738797
84 3 1.66773 3.17015 10.7589 1.29834 -14.8175 -0.245733
85 3 6.05861 5.80578 15.2305 -6.33913 1.15495 -7.01806
86 3 12.1281 8.33651 10.1247 1.97602 -9.72901 -7.77794
87 3 1.52301 7.79803 9.45097 7.42892 -8.25313 3.27429
88 3 2.48739 12.8698 14.2787 3.01591 4.87587 8.13815
89 3 11.7058 1.58157 12.6941 -2.2284 -10.8487 -2.79736
90 3 8.62868 10.2171 10.3281 -1.82814 0.529003 2.93328
91 3 3.52019 7.81114 10.9925 -2.9213 -7.43328 5.16518
92 3 8.86125 11.6542 13.0385 5.65287 -6.82814 -3.40034
93 3 3.97729 10.3368 13.2203 0.317777 0.213041 7.13782
94 3 13.011 11.3719 9.91811 -4.72582 2.34152 -0.354851
95 3 5.28372 12.954 13.8347 -4.62683 -6.39898 3.34286
96 3 3.94126 7.48767 14.854 3.20917 5.1798 -0.870589
97 3 9.30854 1.55508 13.8271 -4.92069 4.22534 2.56991
98 3 13.0361 12.1334 12.9597 6.9794 -1.23619 -2.72881
ITEM: TIMESTEP
860000
ITEM: NUMBER OF ATOMS
98
ITEM: BOX BOUNDS pp pp pp
-8.8911966683022925e-03 1.3096573196668459e+01
-7.6514174794493073e-03 1.3153235417479360e+01
9.2127394064100372e+00 1.5381309593589961e+01
ITEM: ATOMS id type x y z vx vy vz
1 1 10.2548 11.1394 10.7731 4.68352 0.616192 -2.8362
2 1 6.95822 12.8525 13.3031 -15.109 1.24734 -0.717726
3 1 4.79894 11.2333 10.1039 -25.1549 -3.92114 7.1795
4 1 10.1643 6.7403 12.8532 -23.4592 -1.15449 -20.9859
5 1 11.9444 0.770696 9.29271 1.11318 -8.90583 -1.95835
6 1 7.62969 1.98048 14.5273 -11.5284 4.64416 10.7867
7 1 2.04264 0.146236 9.30619 -5.06002 9.70545 -1.23743
8 1 12.4771 6.17999 14.6893 7.35485 21.2723 4.37783
9 1 0.702369 11.7474 10.9196 19.4443 14.5151 -14.6451
10 1 2.18413 8.76972 9.2229 -6.57739 -4.43266 -10.2392
11 1 9.77715 8.9822 8.78434 -2.90995 2.08711 10.3809
12 1 1.54746 9.14361 12.3423 19.0522 -2.22391 -14.2595
13 1 4.52769 3.83974 14.0752 -2.51454 20.5976 10.8447
14 1 6.0408 8.0165 11.1387 14.3079 -10.1919 -1.0522
15 1 7.85845 9.92066 12.6681 2.32522 -18.4455 24.9922
16 1 10.6646 3.99654 12.9766 8.68359 4.21178 16.3422
17 1 0.144385 2.74451 10.8678 -5.14896 6.15283 17.3759
18 1 6.24822 4.35944 10.4112 -2.18224 11.531 7.80741
19 1 12.364 6.35668 11.6444 8.05946 -5.33068 -2.73514
20 1 0.170317 3.01797 14.1312 -4.97513 -6.03737 1.12012
21 1 8.81457 0.320268 10.8166 11.4941 4.59705 -1.31787
22 1 3.96015 6.9307 13.4174 7.30369 9.47478 8.78787
23 1 5.74585 2.29635 11.8992 -0.305266 -11.1772 6.19175
24 1 8.17206 3.14178 11.8725 -3.76681 -15.8051 -3.08918
25 1 2.57184 1.54949 12.5415 -9.96446 2.2743 2.09113
26 1 1.75526 5.58466 10.5292 -1.92879 3.95959 1.26925
27 1 12.8888 11.9035 13.8736 -3.61234 6.16491 -4.7999
28 1 6.59331 8.13344 14.626 3.91535 -13.0055 -4.4614
29 2 3.03585 11.5692 13.7243 1.36308 1.75447 -18.7713
30 2 10.426 4.20587 9.86476 4.84683 -2.56529 -17.6027
31 2 8.83986 6.33023 10.1037 5.53213 -6.31219 -3.80017
32 2 5.24639 1.27329 9.20221 6.18451 -7.07176 -8.35132
33 2 7.56098 10.4821 9.67683 2.96037 12.625 15.0078
34 2 1.80425 4.88291 13.1233 -0.619621 5.72314 16.277
35 2 4.11594 6.56344 10.4075 1.0946 -2.60716 16.6093
36 2 12.5162 8.88187 10.5455 11.2063 -7.82497 2.94225
37 2 5.38015 10.2928 12.7599 0.353628 3.37868 -5.54083
38 2 2.91434 2.75587 10.5119 -17.4041 -3.87911 -4.73743
39 2 11.8732 0.909852 12.339 13.7698 9.55782 6.2155
40 2 11.7998 9.59738 13.1494 -2.69819 -7.66226 -7.13283
41 2 7.20127 4.64523 13.4878 1.54403 -1.47761 -2.14802
42 2 9.63166 12.8247 14.1533 -3.93416 0.204134 -19.3252
43 3 3.38442 5.27593 13.4942 2.82975 0.560849 -5.56413
44 3 10.0259 5.60877 15.2805 -1.41008 -8.83152 -6.28205
45 3 12.7269 7.32701 9.90519 -4.64301 -7.90383 -2.73776
46 3 6.57106 3.98528 12.0475 -6.4491 5.88265 10.058
47 3 0.832968 5.10448 14.3614 2.234 -5.45167 9.68487
48 3 6.30702 4.14443 14.7174 -7.69111 1.07116 -4.37536
49 3 1.74092 3.60841 10.7901 -2.14129 -1.36065 -2.92443
50 3 10.4934 8.96361 13.3456 6.28943 -0.472848 -7.6612
51 3 4.05285 5.0732 10.23 5.77892 2.98333 2.75358
52 3 2.19016 1.15136 10.8263 -1.09185 3.61474 2.43665
53 3 8.95698 0.751192 14.8783 -2.83422 4.98137 -0.668718
54 3 6.13772 8.98232 13.0189 -1.22512 -3.56102 4.16221
55 3 8.70593 12.2094 13.0771 -7.39969 14.0541 0.401597
56 3 7.07228 6.09857 13.2747 7.25001 -3.47195 -3.47939
57 3 8.61652 10.028 11.0266 0.732696 1.17297 -1.54556
58 3 11.0859 0.186835 13.5423 -1.29136 -3.30463 8.62466
59 3 4.25516 10.2151 11.644 5.55292 -11.3442 0.873281
60 3 2.89683 13.1568 13.6343 2.51888 -0.988453 -0.314872
61 3 11.4065 5.79881 13.1522 -8.50977 2.73485 2.24524
62 3 6.49689 11.3845 12.5112 -11.0767 -0.443936 -8.35041
63 3 11.8119 4.4022 10.7283 4.23147 6.17191 -0.511014
64 3 -0.0790809 1.98069 15.5529 -1.49078 0.989826 -2.70617
65 3 1.81686 3.30924 13.4428 -8.05429 -10.3282 -3.97182
66 3 2.5772 8.30763 13.5702 -3.18131 3.3958 -4.54442
67 3 1.96109 10.8656 12.6391 -6.22743 0.936948 3.90443
68 3 6.19971 1.93546 10.1992 -6.82889 -8.02208 -6.60785
69 3 11.1295 9.48483 10.2045 1.19147 9.7685 4.99106
70 3 13.1988 12.6604 9.31919 8.15535 -6.85946 0.330671
71 3 0.940854 5.68813 12.1461 -4.13671 -0.333218 4.19846
72 3 8.37566 7.6176 9.50892 -8.20849 -3.40739 -1.82444
73 3 4.58146 0.166455 9.89731 3.09675 -2.83393 -8.87208
74 3 9.70397 6.39757 11.23 -1.79698 1.68701 11.0912
75 3 11.0102 3.35262 14.7675 11.5415 4.68385 -2.60007
76 3 5.91458 1.14766 13.9585 2.00089 -2.87351 -3.79579
77 3 12.7613 8.52011 12.1664 -5.70495 4.78423 3.65544
78 3 12.2193 2.52488 12.4314 -3.0504 -3.18716 0.898404
79 3 12.7184 10.0164 14.2662 -1.39968 -4.75926 -4.1692
80 3 6.13294 9.64591 10.0711 -2.73726 -8.73683 1.82779
81 3 7.71108 1.27816 12.3813 -0.0989047 -5.9517 6.09623
82 3 11.5443 10.8559 12.243 3.27116 -0.6069 4.58241
83 3 8.33615 3.62222 13.6396 -1.71696 5.18118 13.0741
84 3 4.00819 2.64398 11.7531 10.116 11.0568 -1.13267
85 3 7.57743 5.41875 10.4734 7.27514 0.830959 -5.8188
86 3 0.80854 9.65303 10.4753 -7.64622 -11.3279 5.24241
87 3 4.94405 7.32738 9.15598 7.92278 -0.420638 -8.30289
88 3 2.74863 11.5301 9.09291 4.30223 -2.00875 -1.77747
89 3 10.8436 0.975557 10.9183 -6.16718 -7.54439 3.79418
90 3 7.87058 9.8048 14.5856 -8.05856 1.31777 0.547733
91 3 4.70604 6.99492 11.8181 -6.05571 11.7958 -3.60734
92 3 7.32814 12.0534 9.69622 6.61175 -3.58747 -5.79533
93 3 4.4831 10.8074 13.8587 15.0229 0.425381 -1.9274
94 3 10.1078 11.69 15.4056 -3.94983 1.02975 11.2763
95 3 3.73156 2.63704 15.3962 3.59728 5.13864 1.86504
96 3 2.58509 7.1354 10.2271 7.78165 5.98828 -2.10388
97 3 9.62245 3.66747 11.0739 3.52511 6.59479 0.786998
98 3 13.0477 13.3795 12.2384 3.97815 5.81957 -7.54777
ITEM: TIMESTEP
880000
ITEM: NUMBER OF ATOMS
98
ITEM: BOX BOUNDS pp pp pp
-8.8911966683022925e-03 1.3096573196668459e+01
-7.6514174794493073e-03 1.3153235417479360e+01
9.2127394064100372e+00 1.5381309593589961e+01
ITEM: ATOMS id type x y z vx vy vz
1 1 11.0062 10.6223 11.9663 11.2798 5.68758 16.8255
2 1 6.00494 0.608859 14.3548 8.6117 -13.0543 0.951605
3 1 2.99486 8.95173 14.0586 -0.277469 6.15561 3.54942
4 1 5.75265 8.65414 12.8746 -6.2477 -16.6392 -16.1792
5 1 8.94742 2.70188 14.6493 6.85638 6.41417 -15.074
6 1 6.34755 12.7551 10.9922 -18.4127 5.29728 31.9099
7 1 11.7441 0.788711 10.4089 4.00091 -1.32884 -17.7235
8 1 10.5317 5.68695 14.1754 12.1447 4.70662 9.99206
9 1 0.877767 11.2292 12.0614 14.7682 9.08725 -2.07794
10 1 0.900845 7.09293 13.8344 -9.14948 -4.59553 -1.8126
11 1 10.5317 8.08104 9.98203 17.0453 -8.88988 3.69257
12 1 3.65372 10.1255 10.9661 12.395 -18.9628 3.78868
13 1 3.72518 6.07053 14.2076 15.9756 5.25838 -12.2643
14 1 7.83872 7.61449 10.585 4.92831 -4.96593 -4.55603
15 1 7.94719 11.5274 12.4459 6.12519 5.13515 -5.20232
16 1 12.3434 3.24269 12.9102 -17.0379 -12.3859 -2.39559
17 1 12.3963 3.99294 9.71534 3.01427 2.26326 -8.89827
18 1 7.58101 5.11496 9.80424 -8.2916 -8.37676 10.5037
19 1 12.8351 6.74671 11.332 4.11717 -3.72209 -7.69732
20 1 1.54463 1.12718 13.6162 -19.2303 5.13677 -15.2846
21 1 9.1999 12.2499 15.0717 24.8555 -7.15988 1.14744
22 1 2.41837 7.17689 11.4983 -2.96959 9.61275 -5.35852
23 1 5.36252 4.11407 12.9935 -6.19358 0.0695145 14.2347
24 1 4.10151 0.892667 12.3723 -11.4777 -0.290086 2.45963
25 1 3.70807 13.0321 9.43323 2.78206 9.30679 -2.67416
26 1 3.49062 4.39617 10.7675 10.4986 0.716811 -9.48844
27 1 11.66 10.7982 15.381 11.529 -11.3922 13.7277
28 1 8.76595 9.11029 13.5392 10.2295 -8.32635 7.98469
29 2 1.69569 11.4035 15.1283 9.2878 -2.44057 -4.20708
30 2 9.85786 2.72277 10.7201 3.97397 5.69425 -7.21153
31 2 10.1803 5.52953 11.1224 -3.41411 -12.6645 -2.2094
32 2 5.64857 2.81568 9.55578 -9.62458 14.1596 -7.55696
33 2 7.96696 10.2423 10.2346 -13.1536 6.95107 6.759
34 2 1.81699 4.83136 12.9428 -10.3545 -5.99239 3.79826
35 2 5.02626 7.69702 9.71718 -8.37698 -2.22284 -11.3125
36 2 0.610151 9.1383 9.87984 -9.0617 2.79224 -3.35102
37 2 4.33813 11.5914 12.6604 4.8291 13.4326 -0.318468
38 2 1.81724 2.01697 10.5647 -8.83952 -8.09104 -7.10413
39 2 11.8757 12.9375 13.2425 -8.64355 15.195 -3.50664
40 2 11.5389 8.55245 13.2295 3.63278 -1.20416 -15.8984
41 2 7.10409 6.23079 13.1315 9.57648 -0.885832 -3.94464
42 2 8.85502 0.91578 12.3338 -4.66233 -7.15346 3.3383
43 3 3.31668 4.78711 12.5118 -5.00494 -2.10991 -3.20612
44 3 9.35955 4.2087 10.0326 -13.1148 2.38863 9.15196
45 3 0.187377 7.64616 9.38063 4.55905 2.70597 -0.773093
46 3 7.66604 5.5865 11.8331 -14.1286 0.633339 -4.63908
47 3 2.02786 5.66263 14.2756 5.4025 0.0640401 -9.70337
48 3 5.66302 5.81693 13.1882 -4.65387 2.58962 2.68487
49 3 2.13914 3.38722 10.0361 -3.08575 0.925186 2.0554
50 3 10.7602 7.66049 14.2745 5.85373 -2.06421 -0.0741754
51 3 3.69969 6.70654 10.1126 2.20627 -3.20127 6.84401
52 3 2.59928 1.70604 11.8968 -10.8306 9.86857 2.54165
53 3 8.55973 1.16631 13.9341 -0.739098 2.12054 -8.36608
54 3 4.09987 12.7612 13.7345 3.9845 -2.20168 -1.98743
55 3 9.15555 11.2854 13.5096 -2.58544 -3.73381 -2.72481
56 3 7.19554 7.82342 13.0966 0.729176 -0.309272 5.30336
57 3 7.98626 9.86956 11.6766 -7.45792 -0.284792 -2.63998
58 3 8.23246 0.00947231 11.4108 -0.247806 -2.9784 -1.0348
59 3 5.80036 11.3824 12.597 10.6136 6.82222 -1.27973
60 3 1.28462 12.1891 13.8718 1.40034 12.4868 3.07536
61 3 11.4354 4.01567 14.3951 -5.0796 1.72227 5.98705
62 3 4.22789 12.4646 11.2307 -7.7688 1.69012 -0.57707
63 3 11.3222 3.32488 11.1551 12.8223 -4.98023 -3.62848
64 3 0.34586 1.82869 10.7146 6.80479 -10.3307 1.43517
65 3 0.912058 3.58765 13.0856 8.3803 -5.40953 1.97682
66 3 2.8837 7.69313 13.0188 -12.4477 8.13391 5.22879
67 3 1.17866 9.77085 14.728 -5.59055 -5.34703 10.5521
68 3 7.20839 3.48012 15.303 -2.32571 -3.93822 4.3274
69 3 12.3817 9.7396 10.4342 1.9542 2.37316 -2.65547
70 3 1.09707 11.7284 10.4325 7.84521 -3.38995 -0.0562454
71 3 1.06709 5.81218 11.7089 2.59497 0.985602 3.92902
72 3 11.4562 5.85153 10.0514 5.32638 6.85714 2.72346
73 3 5.70887 1.20784 9.83477 6.27753 4.96022 -10.6404
74 3 10.3755 5.26232 12.4662 0.605836 -3.16884 1.28252
75 3 9.92644 1.41672 9.84798 7.82628 3.65426 -8.26535
76 3 4.7992 3.08434 14.5129 -6.33447 5.95604 -6.59929
77 3 12.7923 7.69545 12.8419 -8.70992 3.19281 10.3504
78 3 12.9199 0.999331 13.178 -9.91968 -2.12727 4.42238
79 3 11.7257 9.84754 13.937 -1.54253 -4.89325 3.32176
80 3 8.39372 9.13028 15.447 -4.11182 -6.39985 8.68989
81 3 5.84731 1.09864 12.6361 1.56377 8.93086 -5.03601
82 3 10.5745 8.66159 11.9886 -5.54025 -7.6652 6.74908
83 3 8.05347 5.79762 14.4066 10.7907 1.79842 11.5416
84 3 5.14589 3.60179 10.9127 3.61818 -8.38642 -8.5152
85 3 9.38007 6.7585 10.4408 12.8648 -4.39662 -0.392349
86 3 1.90948 8.97476 11.0524 1.13898 10.2556 -4.33196
87 3 4.41585 8.52919 14.7926 -4.19112 1.11264 -6.07015
88 3 3.18501 11.0895 15.1777 3.92229 7.82057 6.5683
89 3 12.3035 11.711 12.4071 10.027 -6.49404 -6.81477
90 3 9.62446 11.141 10.3061 -0.14467 5.90474 8.11959
91 3 6.31006 7.03446 9.44925 3.97028 -0.275039 5.28627
92 3 6.82089 11.2101 9.99219 -0.34819 13.5737 -0.245205
93 3 3.42833 10.514 12.5162 -4.88434 0.0863115 -1.32198
94 3 10.5156 0.461931 12.3175 0.575325 -4.81775 -0.313157
95 3 2.32716 0.848182 9.48269 1.29102 -14.4636 -0.163155
96 3 5.13516 8.69297 10.9372 8.24932 -1.48805 -5.18664
97 3 8.92802 2.501 11.9627 -8.25736 -9.8853 -5.17549
98 3 11.3788 12.981 14.7176 -12.7975 3.32124 5.44233
ITEM: TIMESTEP
900000
ITEM: NUMBER OF ATOMS
98
ITEM: BOX BOUNDS pp pp pp
-8.8911966683022925e-03 1.3096573196668459e+01
-7.6514174794493073e-03 1.3153235417479360e+01
9.2127394064100372e+00 1.5381309593589961e+01
ITEM: ATOMS id type x y z vx vy vz
1 1 11.0825 10.0179 14.0101 -4.30783 -13.0067 -10.5677
2 1 6.72655 1.96903 11.7472 14.5574 15.9839 14.4475
3 1 0.806682 11.6458 10.4615 -4.00538 5.7843 3.33538
4 1 3.9258 10.4243 9.85926 9.42065 -7.10652 17.4444
5 1 6.42159 9.47915 12.8407 14.7488 -23.4054 3.69346
6 1 6.91487 12.6031 11.3726 -7.91039 7.32335 -9.11678
7 1 11.76 12.558 15.1084 -9.36306 8.87857 2.65347
8 1 9.01847 4.41899 12.8772 -27.5855 23.2998 2.60879
9 1 1.02046 10.0446 14.2359 6.37018 11.0462 -18.8537
10 1 12.0204 5.02491 14.1536 -9.66523 -0.533502 -13.0237
11 1 10.9372 10.07 11.1257 -1.25532 -9.61722 -0.0381464
12 1 4.13904 5.43127 14.8046 5.37788 1.43194 8.52017
13 1 0.165069 7.90277 15.2121 -1.02492 0.498721 -12.0427
14 1 6.21076 7.57277 10.067 5.43699 -6.08437 5.35784
15 1 9.13511 0.65223 9.54895 -6.92929 -1.65225 -12.7911
16 1 1.16001 1.15461 13.5789 -2.88757 2.07892 -17.6463
17 1 0.900061 4.23818 10.0696 -10.5594 -10.9298 13.326
18 1 8.90056 7.29468 14.6895 9.64657 10.4777 -14.2955
19 1 0.1128 6.62655 11.6306 2.30194 15.0397 10.2418
20 1 11.5447 3.0622 11.8859 4.63904 3.72912 -17.3682
21 1 5.99779 12.6115 14.0008 -1.4996 5.37902 -7.50095
22 1 2.6554 7.77813 13.4622 0.972605 -13.2312 -15.9515
23 1 4.14496 5.33965 12.0406 5.74404 4.91748 -13.0245
24 1 4.22486 2.68078 13.1266 12.8616 1.41578 -8.37557
25 1 3.29716 0.14422 11.4049 1.38972 -5.76881 0.105014
26 1 9.0648 3.65135 10.3721 7.26315 -13.4558 5.08492
27 1 9.08306 11.4729 13.2527 -5.48506 -22.9401 16.0414
28 1 8.4209 7.81562 11.4539 -7.3213 -9.72394 3.60605
29 2 3.0763 12.593 14.6642 5.19033 -3.06102 -12.4267
30 2 12.0184 2.4278 15.1845 4.18084 -8.93327 -0.452252
31 2 10.5608 5.81631 10.267 10.8653 -3.75943 -7.4474
32 2 6.48461 2.43077 14.9796 -0.511264 1.85543 -6.56529
33 2 8.30092 10.3022 10.037 -6.17321 6.34815 -5.90325
34 2 1.6481 4.44764 13.3201 5.69069 0.205839 0.125468
35 2 3.86537 7.31559 10.3924 4.07508 -14.2505 4.30192
36 2 1.32008 9.48541 11.2419 -12.7517 -1.30743 -4.70063
37 2 3.79925 10.4069 12.7036 1.62709 -3.92522 -21.5716
38 2 4.09616 2.96425 10.3211 0.460372 -3.411 -6.12594
39 2 11.8573 12.8761 12.0547 -2.87089 12.5164 -1.23949
40 2 10.9147 7.66427 13.2824 -15.139 -4.86604 1.73392
41 2 6.7385 6.36839 13.3192 6.68214 0.162691 7.54254
42 2 9.44441 1.12872 12.6578 8.32171 0.368999 -4.11648
43 3 3.25193 4.71955 13.4954 6.74037 8.24711 5.94757
44 3 10.0848 5.0041 15.0983 8.1874 -1.29988 -8.03559
45 3 0.657787 8.14811 11.0299 1.7152 -11.9925 -8.00313
46 3 7.57303 5.21156 13.1222 -8.8312 3.2044 4.80842
47 3 0.723891 5.09424 14.5497 3.79331 -1.80286 -7.11155
48 3 5.41768 5.91633 13.5831 -0.242812 5.37072 -2.7133
49 3 3.19307 4.09533 10.1398 -2.38494 4.25183 9.56155
50 3 9.40261 7.43265 12.9015 -10.1139 4.91426 -1.09612
51 3 5.0271 6.29314 10.2197 1.44506 3.03468 -1.57289
52 3 5.22754 3.13746 11.4637 7.57033 1.42723 -1.05553
53 3 8.90681 0.382285 13.9028 -5.70777 -3.95226 -3.63489
54 3 2.5382 9.49608 12.1702 -6.82831 -1.35616 2.7956
55 3 9.39854 10.2059 14.7993 -2.67402 3.32015 0.26433
56 3 6.7483 7.57358 12.2416 -16.2605 0.714528 0.926841
57 3 7.28553 11.1518 12.9456 15.4652 -4.94758 -9.99771
58 3 8.60759 0.488503 11.5123 -9.68296 -1.57908 5.17753
59 3 2.49761 11.3435 13.5986 1.66608 9.57183 11.7719
60 3 3.21992 0.602811 13.7356 -4.11384 6.59001 7.59308
61 3 11.9189 3.28513 13.9434 -3.71401 -10.3021 4.36215
62 3 4.33901 11.177 11.4215 -10.6196 -3.97928 6.2573
63 3 12.6472 3.21657 10.3137 7.65108 -2.10912 10.1083
64 3 12.7322 1.09286 15.0516 7.43701 -2.22608 1.72507
65 3 1.56301 2.93804 13.5323 1.78263 -7.99204 -0.175738
66 3 1.07097 8.50983 13.8577 5.90212 -2.18145 1.38155
67 3 1.91985 10.0138 9.85982 -0.528178 -2.10081 -3.48338
68 3 4.9648 2.93058 14.9676 -7.32992 0.130895 -0.839935
69 3 12.7606 11.0663 15.0565 -3.85146 9.77933 -3.84557
70 3 2.11798 12.6029 9.89775 5.86093 2.58273 -1.96852
71 3 1.22472 5.16705 11.9802 9.33246 -2.203 -1.8467
72 3 12.05 6.17102 10.0204 9.91588 9.51751 -8.62579
73 3 6.45932 0.867447 9.36005 3.78033 3.59649 0.692354
74 3 10.2339 4.71444 11.2518 -3.94575 -6.17871 -4.18706
75 3 10.5952 2.14837 9.46484 2.57782 -6.13143 0.342165
76 3 7.57791 2.97918 9.73645 3.49792 -11.123 -5.60757
77 3 11.7469 6.4267 12.9022 2.1357 -9.86455 11.6253
78 3 0.231817 13.0995 11.962 9.35199 12.1146 3.52017
79 3 11.2827 8.35102 14.6644 -7.3413 4.33236 -11.1829
80 3 7.20863 9.18608 10.0804 3.34963 0.4016 3.9194
81 3 5.78822 0.221684 12.5353 -9.53682 -8.05471 -1.07043
82 3 11.2788 8.79637 12.4624 -2.55667 7.46405 -2.50556
83 3 7.20807 7.15338 14.7087 5.9331 -7.17818 -0.5783
84 3 6.98756 2.3612 13.4019 -2.70402 1.33455 5.36635
85 3 9.55491 7.13416 10.2605 -6.53316 -2.80392 6.35861
86 3 0.273833 10.6861 11.7733 4.3355 11.5253 -3.59388
87 3 2.87904 7.10677 15.242 5.14624 6.97647 6.24128
88 3 4.53933 11.9855 14.7141 -9.75199 0.560678 -6.0372
89 3 11.2344 12.4474 10.7178 -4.21313 0.283295 -3.0638
90 3 9.2218 10.0044 11.322 1.83277 8.20518 6.83174
91 3 4.5037 8.77454 10.2958 6.66129 -4.38044 13.9181
92 3 7.89981 11.7118 10.0568 -3.83782 0.600608 1.74871
93 3 4.68061 9.57575 13.4355 -7.17245 3.63125 7.22803
94 3 11.0446 1.07665 12.4284 4.39552 -4.48213 8.44613
95 3 3.25585 1.82111 10.8562 -7.11927 -0.865681 2.81345
96 3 3.35741 7.11427 11.8043 0.71365 -3.62122 3.30397
97 3 9.42419 2.72366 12.5974 5.11719 6.93798 -0.045927
98 3 11.0206 11.9486 13.166 -0.614508 1.9188 -2.76295
ITEM: TIMESTEP
920000
ITEM: NUMBER OF ATOMS
98
ITEM: BOX BOUNDS pp pp pp
-8.8911966683022925e-03 1.3096573196668459e+01
-7.6514174794493073e-03 1.3153235417479360e+01
9.2127394064100372e+00 1.5381309593589961e+01
ITEM: ATOMS id type x y z vx vy vz
1 1 3.24648 9.40699 11.0868 1.30399 -10.0013 -8.50133
2 1 6.05119 2.05125 12.0369 2.48711 10.8509 -10.0175
3 1 10.3439 11.2418 11.4937 -1.34615 10.5071 -0.467304
4 1 8.57597 6.84052 12.4551 5.00962 -4.85291 -3.24607
5 1 5.44834 11.9946 9.81689 -5.69388 1.32634 13.6258
6 1 7.34683 0.475325 14.4899 -1.92098 2.32688 5.7088
7 1 1.37351 11.7814 12.2683 3.8558 -2.22381 -17.2483
8 1 9.24778 3.65296 14.2876 -12.5119 -1.71825 1.09522
9 1 10.7507 10.988 14.6911 -1.01937 5.1321 5.72179
10 1 1.0699 7.08591 14.5754 -0.457413 -21.4734 8.25007
11 1 11.647 5.58874 14.0532 -9.80904 6.81206 -8.78244
12 1 4.22335 4.02379 12.9008 11.4614 1.06198 -5.02818
13 1 11.3413 7.637 9.55864 -13.8154 -1.11828 18.344
14 1 7.96863 2.80647 10.791 -15.9489 10.1702 -0.0720533
15 1 7.90139 9.21852 11.4275 -12.6082 -18.0137 -5.1091
16 1 1.22674 1.95576 13.6298 -9.2017 9.78424 -0.865624
17 1 1.52159 4.45594 9.78191 -7.61668 13.3506 9.23748
18 1 9.22127 8.84273 15.1553 10.7134 4.40897 -3.675
19 1 12.8056 6.36929 11.5 21.0815 -2.19475 5.15909
20 1 12.304 2.81472 12.4611 10.1495 2.09977 5.17367
21 1 7.16061 12.5253 11.8048 11.6849 -6.2099 13.2656
22 1 5.46946 7.88256 12.5266 6.93168 -6.97062 -11.1334
23 1 4.74239 5.14353 10.4701 2.35235 -11.3909 -5.12766
24 1 4.03647 -0.00158213 12.9939 -7.0919 3.76507 -5.73114
25 1 0.590966 10.4614 9.33034 -11.8501 -16.0081 -4.12826
26 1 12.3724 0.106915 9.81338 -3.95231 -13.3398 2.01069
27 1 6.5146 9.33198 14.4399 13.2331 2.41852 5.88876
28 1 6.75649 6.09882 15.1521 8.1171 -9.56382 3.73991
29 2 2.63062 13.0456 15.2471 0.00513373 -8.4216 -5.40962
30 2 12.071 3.08098 9.52526 3.38845 1.6806 0.0816836
31 2 10.2578 4.91669 10.4747 -2.92936 -11.1321 -1.15217
32 2 6.12766 2.93926 15.1137 -10.1991 -3.40521 21.455
33 2 8.61286 11.8615 9.70176 -11.4396 6.57166 1.72018
34 2 1.50351 4.82607 12.6671 -11.374 -5.12649 -9.1396
35 2 4.24233 7.92645 9.25371 -12.541 6.98293 8.65179
36 2 0.770582 9.16413 12.5924 6.16769 0.412555 2.47036
37 2 4.8621 10.86 12.3955 -6.37273 -2.68826 5.19195
38 2 3.64285 2.20479 10.5882 3.69804 13.9032 4.29304
39 2 12.0995 12.983 12.6711 5.80322 23.4007 -2.39124
40 2 10.643 8.7263 12.4787 11.6657 5.00837 5.85557
41 2 6.93579 5.09026 12.2927 -2.02328 -10.4177 -14.6236
42 2 9.38937 1.04245 12.2351 -4.51647 -1.75555 -6.19771
43 3 2.6868 4.85009 13.6811 -2.86496 -4.82354 1.69792
44 3 9.3122 3.91499 10.0563 4.25479 -9.11417 -2.89263
45 3 1.3682 7.70754 12.9283 -4.86655 -4.34072 6.03543
46 3 7.17154 3.63136 11.9846 2.01788 -3.18736 5.4795
47 3 0.216185 5.51284 13.3747 2.73914 0.82402 14.6297
48 3 5.42708 5.09375 12.3251 -3.76689 2.9029 -2.43581
49 3 3.34954 3.60131 10.8239 -2.80495 -1.92866 1.12542
50 3 7.08979 8.48141 12.8469 3.62075 -3.13011 -7.35963
51 3 5.08165 7.35045 14.22 -6.92799 6.51458 0.121725
52 3 3.93087 1.40318 11.8091 -3.60451 -5.46445 0.236525
53 3 8.3951 1.13142 11.0419 -0.584851 -0.0745507 -5.50385
54 3 3.50584 11.5165 12.3651 8.62186 5.16671 -2.98017
55 3 10.0669 12.4328 9.78117 -3.29468 -3.73319 -4.86826
56 3 7.2321 6.18167 11.2961 -9.54942 -6.01775 3.8328
57 3 8.65819 10.5838 15.0101 -1.02729 6.19473 9.68774
58 3 10.2655 2.54627 12.369 -7.24571 2.66496 2.58301
59 3 4.60688 9.40117 12.3422 -3.85715 0.14991 4.14527
60 3 4.03098 12.6146 15.2524 -7.17481 -0.0483352 2.76465
61 3 11.2366 3.66898 14.4287 10.3045 -0.261539 -14.5463
62 3 5.8296 11.1364 13.7346 -1.16601 -5.73304 3.87236
63 3 11.831 4.18989 10.7074 -11.1181 -7.82385 2.59231
64 3 0.459696 3.18838 15.2599 2.58955 0.408176 -4.29008
65 3 1.08341 3.38825 12.4013 6.34108 -2.8657 -4.12385
66 3 12.9238 7.01654 9.64292 5.13608 -4.0378 -7.0472
67 3 1.32786 9.80438 11.2676 7.80621 3.68102 -3.09262
68 3 5.49588 2.27069 10.3926 5.83615 -2.45162 4.79132
69 3 11.9669 10.0295 9.61354 -0.678485 9.58138 -3.59313
70 3 2.05545 0.274466 13.8041 5.81701 -5.95591 -5.51057
71 3 1.51266 5.66692 11.3634 -5.44177 5.9597 -7.69409
72 3 10.6078 6.00542 9.3933 4.99195 2.41369 -7.8173
73 3 7.75882 2.54436 15.171 -2.21314 1.80464 -3.38098
74 3 9.96086 5.56843 12.0544 6.476 -10.7837 10.322
75 3 11.5562 1.76836 9.61122 0.471599 1.32319 2.9709
76 3 6.08676 4.38833 9.25258 9.87925 -4.25204 0.416815
77 3 9.73153 8.70292 11.1347 1.92555 -2.85599 -0.284241
78 3 12.7608 1.07904 12.4225 1.40787 2.68014 -8.41355
79 3 10.7598 10.1073 12.9989 -4.17763 -2.80836 6.08211
80 3 8.531 11.326 11.1991 -1.86018 -4.2039 -3.56321
81 3 6.12286 0.566479 13.0626 -1.646 -0.586063 -1.50342
82 3 9.80865 7.90134 13.597 6.58901 7.58591 7.37942
83 3 7.77435 5.39695 13.6246 -4.11493 2.00328 9.21149
84 3 5.04425 2.75496 13.8706 1.6286 -7.55259 0.391575
85 3 7.46331 8.46487 9.83937 3.14556 2.79911 -3.86007
86 3 0.812348 10.1398 13.7413 4.54675 6.07526 5.82101
87 3 2.66077 7.90205 15.3523 3.09164 -8.47833 -5.94661
88 3 1.63764 12.2687 9.9241 -5.70034 -0.242677 -6.28612
89 3 12.7253 11.7419 11.934 7.53102 6.97492 -3.01538
90 3 12.0159 7.91971 12.323 -0.182148 2.84477 2.34361
91 3 4.67081 9.41284 9.52306 6.50786 -1.03741 -2.4938
92 3 7.29528 12.5958 9.60621 4.61729 9.79073 6.18003
93 3 5.78491 11.4484 11.3641 4.80377 1.13298 -6.86566
94 3 10.6329 -0.000808633 12.1794 -8.90472 7.13447 1.62584
95 3 2.79943 1.63654 9.49991 -3.40385 7.34352 4.5782
96 3 4.73424 6.94126 10.4358 -0.945002 5.94338 -6.64031
97 3 8.66687 0.356496 13.4792 -3.01299 4.96375 -4.22798
98 3 12.2488 12.5614 14.3686 -3.65518 4.81279 11.2376
ITEM: TIMESTEP
940000
ITEM: NUMBER OF ATOMS
98
ITEM: BOX BOUNDS pp pp pp
-8.8911966683022925e-03 1.3096573196668459e+01
-7.6514174794493073e-03 1.3153235417479360e+01
9.2127394064100372e+00 1.5381309593589961e+01
ITEM: ATOMS id type x y z vx vy vz
1 1 12.3437 0.464765 9.48473 -12.0067 7.41619 -21.4974
2 1 4.98243 0.45037 12.7044 -7.71692 5.31621 9.37565
3 1 11.7221 10.3904 10.3117 9.06385 2.12711 1.74297
4 1 9.62151 6.75387 13.4448 1.41306 9.22667 23.3326
5 1 9.38912 11.6099 11.6523 -9.78929 7.30073 9.60604
6 1 9.07938 0.837313 9.18629 -2.64919 13.011 -12.4161
7 1 1.84123 12.9455 12.9204 -14.7197 3.28012 -18.7316
8 1 8.34231 3.87241 14.222 22.8869 -2.09088 9.54918
9 1 8.69324 7.72117 10.3478 9.92766 0.242512 13.7268
10 1 11.6628 7.08496 9.20268 4.6801 4.92026 -15.4664
11 1 7.93564 8.31113 13.1848 13.7269 -9.35908 -0.00922018
12 1 4.71817 2.83977 14.2639 4.74038 2.64809 2.2143
13 1 1.26948 8.11818 14.445 8.73411 -14.7399 3.7884
14 1 8.19706 3.22653 11.2736 -12.1939 -4.68306 -4.87574
15 1 6.15163 8.17534 10.5914 2.50147 28.193 5.02005
16 1 1.77866 2.98985 14.0403 8.85935 2.55797 -9.17318
17 1 1.18546 5.59876 15.1429 18.9444 8.45916 8.39553
18 1 3.49468 11.0024 14.5651 -7.13694 -9.9373 7.90218
19 1 0.80068 7.35526 11.2304 -9.20701 4.16536 -8.17646
20 1 11.6238 4.43256 12.6483 -4.30107 -1.86258 -6.32354
21 1 6.61868 11.66 10.5174 10.4818 13.2417 10.8775
22 1 5.2603 8.15198 13.2365 0.910923 -1.28924 6.52234
23 1 3.3082 6.51752 12.2202 -2.03405 -20.4227 7.37623
24 1 6.87271 12.0027 13.6825 3.47883 -0.629243 -6.76317
25 1 1.10974 10.7827 9.24223 9.59272 -12.5527 -12.7372
26 1 0.597596 2.02971 11.0262 3.83728 4.04475 2.75726
27 1 12.1798 10.4199 13.4895 13.4182 5.15459 3.88724
28 1 6.25678 4.97514 10.2111 -4.87806 20.368 -0.569696
29 2 2.43699 0.701146 9.3954 1.60808 -18.6863 -9.74881
30 2 12.0494 3.54819 9.44782 -5.44219 3.80367 -9.73436
31 2 10.0121 5.36071 10.5616 1.85972 -1.75809 -0.710113
32 2 6.49343 1.1918 9.38155 5.65404 -7.65705 -6.76605
33 2 8.77158 10.2796 15.0479 6.75182 15.3307 2.88201
34 2 1.46517 4.73912 12.4821 5.82311 -2.51153 4.33438
35 2 3.51149 8.23577 9.33313 7.77597 2.53904 2.04255
36 2 1.53643 10.3296 12.3919 0.459616 -0.301636 -11.8836
37 2 4.43709 10.8808 12.3442 -7.33176 -14.5663 9.81052
38 2 4.26277 2.60782 10.9306 -5.46616 -3.23006 2.52738
39 2 12.1038 0.0452024 12.3764 -7.93321 -0.337168 11.9198
40 2 11.0226 8.3852 12.1718 -15.2648 -11.7802 9.91545
41 2 6.89613 5.48857 12.93 0.279715 8.71822 -4.83322
42 2 9.80031 1.21711 12.5241 12.807 5.37998 -10.5549
43 3 2.26565 4.86566 13.8324 14.6841 -10.2735 8.78511
44 3 9.10762 4.14455 10.1301 13.4296 -9.31136 -1.16357
45 3 1.33734 11.3227 13.6423 5.22093 -5.1642 -8.44929
46 3 6.85024 4.62365 14.3266 -0.856911 -0.105441 1.32146
47 3 0.451289 5.85364 12.6728 -4.94948 -5.48878 10.8077
48 3 5.43364 6.14498 12.5095 -6.30879 0.130689 1.19873
49 3 4.61319 3.67934 10.1023 -15.5029 -5.9853 3.28699
50 3 6.56729 8.64069 12.3446 -15.7795 -10.2421 -0.625473
51 3 2.82878 7.48806 14.178 4.52158 3.35793 1.9348
52 3 4.45359 2.8755 12.5414 -2.9509 -5.22675 9.64728
53 3 9.58046 0.566111 11.1441 4.4581 4.12198 4.53614
54 3 3.76373 12.3367 12.2501 -3.5716 -8.34819 7.59996
55 3 8.5577 8.75872 14.953 -2.69339 3.63544 -8.974
56 3 7.20166 4.24185 12.0211 -10.266 -5.65474 1.77459
57 3 8.25633 10.6448 13.6007 -3.58424 -7.15774 9.28429
58 3 8.86173 2.55868 13.0305 2.36763 4.04933 8.66799
59 3 3.16744 10.0283 12.3933 -1.74527 -5.58789 2.76074
60 3 2.96229 12.4889 15.2216 2.60584 14.813 2.63207
61 3 11.5462 3.65976 14.2493 -10.1098 2.88934 -1.47807
62 3 5.14023 10.8495 13.6266 2.63562 4.55176 -1.99226
63 3 11.5571 4.70898 10.5231 -0.185715 -2.52003 3.82174
64 3 0.587887 3.68601 9.31986 -3.14338 4.26302 -9.84136
65 3 0.804163 3.30438 12.469 -4.32827 8.81962 -2.79885
66 3 0.529105 7.05687 9.54144 -2.4651 3.04515 1.86252
67 3 0.706856 9.067 12.7724 -4.47377 1.14196 -2.82188
68 3 5.28797 1.2446 10.4057 -8.74381 -0.617933 2.91463
69 3 12.6892 9.71699 15.3589 -1.50988 3.72274 -2.55967
70 3 2.72446 1.49917 14.1203 -2.47638 -5.29682 -5.02695
71 3 2.40205 5.02458 11.3794 0.962258 -2.77304 -5.34719
72 3 10.0895 6.627 9.53704 2.64186 8.02845 8.67292
73 3 7.67548 2.19079 9.57095 -0.316885 8.09926 1.34049
74 3 10.0863 5.43169 12.0561 -7.62247 7.90365 1.41957
75 3 12.0696 2.15341 10.1244 -0.430496 -2.70729 1.49109
76 3 5.85328 1.40557 14.2237 11.7301 5.37204 -11.4556
77 3 9.33082 8.33311 11.8252 3.47288 -3.80949 -3.83265
78 3 0.359069 0.761734 12.3304 -3.9456 6.09591 7.80957
79 3 11.1041 9.88374 12.1375 3.92859 -7.87142 5.579
80 3 8.16573 10.9105 10.2926 5.90022 1.35505 -0.267672
81 3 6.58253 12.7948 12.0165 7.49662 -7.80379 -3.81853
82 3 11.3238 7.50193 13.3357 0.649324 2.52294 -2.39186
83 3 7.96179 6.45998 13.1611 1.47791 -1.51781 -6.76456
84 3 6.95366 12.9278 9.37437 4.31994 -0.54642 -6.65582
85 3 7.14286 6.65289 10.1564 3.37876 4.08259 -13.5017
86 3 1.23216 11.2178 11.1708 4.77912 6.25672 2.98218
87 3 4.94178 8.04194 15.3649 5.04748 -8.93678 -2.51274
88 3 0.90373 0.654779 9.56385 7.96422 3.43174 -1.37312
89 3 11.7236 12.5045 10.8512 1.70517 -8.96219 -3.4456
90 3 11.9242 7.94811 10.9124 6.84108 0.669213 -5.29892
91 3 2.88985 7.56395 10.669 -0.593149 -0.401777 6.30811
92 3 10.2974 10.6733 9.28614 -6.98673 -8.90053 -8.40765
93 3 5.19149 10.4597 10.9276 1.69752 6.0832 9.35227
94 3 11.3574 1.44991 12.5486 -1.91839 2.15151 4.33489
95 3 2.87958 1.73092 10.6921 -2.08456 0.447716 -8.35376
96 3 2.65509 9.56198 15.2001 -0.13875 5.63763 -3.6037
97 3 9.49405 0.171918 13.3985 -9.68627 1.5957 10.2899
98 3 12.064 12.2081 13.3637 -7.42535 1.40085 -7.94194
ITEM: TIMESTEP
960000
ITEM: NUMBER OF ATOMS
98
ITEM: BOX BOUNDS pp pp pp
-8.8911966683022925e-03 1.3096573196668459e+01
-7.6514174794493073e-03 1.3153235417479360e+01
9.2127394064100372e+00 1.5381309593589961e+01
ITEM: ATOMS id type x y z vx vy vz
1 1 10.5194 -0.247489 15.0374 -1.37546 -12.0053 10.7487
2 1 3.66761 1.60899 12.4115 -16.2506 -0.519636 8.13268
3 1 0.398987 11.1428 12.5716 0.521154 -3.34452 -10.2028
4 1 1.2885 3.01495 9.88854 -5.46734 2.73684 -1.17759
5 1 9.8397 9.92343 12.7808 -6.46864 5.29807 4.56402
6 1 11.7991 9.93083 10.547 2.0792 -0.304478 7.30139
7 1 12.3676 8.66144 13.8003 -3.97228 1.60922 -7.38787
8 1 7.25263 8.41097 14.344 3.66492 -16.5188 -9.4416
9 1 10.152 7.44008 15.123 3.1022 15.1323 15.6565
10 1 1.49088 9.67288 9.07727 4.02556 -14.5201 -7.99696
11 1 7.07044 11.1645 12.374 -8.02686 3.64709 -12.3125
12 1 6.75762 2.9899 13.9108 10.8933 -16.1705 1.7901
13 1 9.72293 4.53144 12.8934 -4.39751 -1.87069 11.9405
14 1 7.15168 6.25252 9.73658 13.2478 -5.13249 18.9135
15 1 3.95317 8.53793 13.4018 5.8817 -4.36161 11.4278
16 1 11.0726 13.358 11.7739 2.00028 13.6917 -3.14585
17 1 2.27033 5.95058 15.2518 4.52611 -17.9807 -2.47951
18 1 3.38069 10.9059 10.746 -17.0295 -8.0962 -17.3125
19 1 12.9983 7.40627 10.3186 6.45928 10.708 -2.55957
20 1 7.06891 3.89522 11.5307 14.9404 2.87978 8.30171
21 1 5.46492 0.208141 11.4657 9.13179 -2.89684 -4.87149
22 1 7.63888 8.9247 10.8505 17.4159 -10.9032 6.38686
23 1 4.33093 6.15882 11.1734 9.71443 -6.27541 -10.916
24 1 7.98399 1.40203 10.0743 24.5332 -10.3275 -6.52834
25 1 6.78217 12.189 9.58502 -9.94113 17.134 6.16449
26 1 0.314985 1.65878 12.7387 -4.31883 10.2515 17.5879
27 1 12.1581 4.78927 11.247 6.83487 4.3957 7.95961
28 1 3.26878 3.63118 14.592 -1.62896 8.09602 -9.16105
29 2 2.30466 0.301805 14.7574 -5.46466 -5.91217 -3.97671
30 2 11.6324 2.18868 9.20966 -3.10902 -26.561 -3.73697
31 2 9.6403 4.47511 9.39953 -2.27276 22.0461 7.36933
32 2 5.28717 2.16152 9.92836 -6.4073 1.78729 -14.7156
33 2 9.06905 11.2664 9.68933 -3.83084 -1.61628 -0.296547
34 2 12.8391 5.46062 14.111 1.80947 6.02837 -17.0231
35 2 4.4629 8.41056 9.83123 -11.0617 -1.90366 3.70243
36 2 1.66983 7.66859 12.688 5.53567 6.56139 -0.289294
37 2 4.46323 11.7389 13.7904 -2.46295 -5.11609 10.1817
38 2 2.23436 3.92134 11.7176 2.96549 9.31052 -3.60951
39 2 0.291453 12.488 10.4072 -5.95793 14.2216 2.60431
40 2 10.2148 7.39692 11.977 7.42652 -0.152308 -0.145472
41 2 7.26892 5.97054 12.7136 6.47205 -3.23455 1.7407
42 2 8.53839 1.04224 12.9056 -23.6521 10.7147 13.0235
43 3 1.05308 4.73813 14.5751 1.15159 5.98365 -3.72941
44 3 8.0419 4.60313 9.8254 2.74002 -1.00053 2.10146
45 3 1.66352 9.00274 13.1408 -10.3115 2.03051 -9.24077
46 3 7.75749 4.37122 13.0257 -3.71463 10.9085 5.20352
47 3 11.9091 4.52733 13.172 -17.6916 6.98432 0.035012
48 3 8.5432 6.46373 11.972 -0.864499 -5.47338 -0.322655
49 3 2.96772 4.31619 10.2698 2.24773 0.263052 0.28893
50 3 7.75463 9.07305 12.624 4.10793 4.81441 6.16451
51 3 5.49389 8.65349 14.8206 -1.67749 -6.4559 -1.75641
52 3 3.31136 4.18534 12.7329 -2.09439 -10.9604 -4.70665
53 3 9.98386 0.718648 13.2229 1.47728 -0.991555 11.8662
54 3 4.46252 0.240438 13.0271 -3.74345 8.19396 -3.60544
55 3 9.52416 10.8315 14.4326 2.49825 -7.62758 -2.71185
56 3 6.94024 6.70565 13.9737 4.36811 -6.47665 12.9743
57 3 7.76523 10.6373 10.362 -3.04477 -7.83378 -11.4984
58 3 7.81165 1.7664 14.1438 0.898762 9.4818 8.46207
59 3 3.89055 10.5956 13.2096 2.41871 -0.639748 -4.37324
60 3 2.42511 1.98721 14.5411 -4.41675 -0.59557 -3.87081
61 3 12.4346 1.56731 14.3076 1.00114 -2.23579 4.84412
62 3 5.93685 11.5201 14.0475 7.10093 9.85573 -5.59246
63 3 10.2302 3.05381 14.8801 -3.27196 -3.00471 1.6183
64 3 12.7142 2.84161 10.0718 2.89308 -3.46175 1.65365
65 3 0.906118 4.46888 11.5831 -4.85502 1.17999 -5.6254
66 3 12.1289 6.22431 15.3091 -3.32553 7.38242 -2.13522
67 3 2.92565 6.9611 12.9 -1.97505 -4.12479 -3.87851
68 3 5.73279 2.64739 11.4338 1.92313 -1.30747 -9.38511
69 3 12.9721 8.94387 9.30789 3.96439 9.08266 -2.45592
70 3 1.66253 12.8699 13.5223 1.18579 5.87002 -3.09213
71 3 0.366082 7.0115 13.3586 4.88781 2.18339 -4.03475
72 3 9.81084 5.56972 14.4198 -5.5941 6.71551 12.9731
73 3 5.29575 3.27165 14.958 -0.0405751 2.81801 0.112541
74 3 10.1863 4.2874 10.7036 -0.767833 -9.15671 -5.55319
75 3 10.9225 1.14224 10.2464 1.09737 7.7243 6.89705
76 3 4.00937 1.62577 10.4 -2.24254 -1.45127 -2.57086
77 3 10.3421 8.69149 11.0758 -10.669 -3.17608 3.69308
78 3 1.1593 11.0326 10.542 0.765567 4.25417 -3.6968
79 3 12.0889 9.96127 12.4682 14.0423 8.42686 0.761595
80 3 10.1995 11.2192 10.9232 2.65305 -4.59054 2.72937
81 3 8.48881 2.13144 11.7712 -3.0034 4.9762 -5.36788
82 3 10.4496 7.98552 13.3746 0.416694 -7.79371 -5.2911
83 3 6.21443 5.58449 11.6699 9.61373 -1.18052 -8.65541
84 3 6.29397 0.820061 9.82598 -1.95692 -3.33623 1.45338
85 3 8.46521 7.80268 9.48963 0.906393 -16.057 -4.15834
86 3 1.36332 7.363 11.1189 4.82268 5.49912 -2.13102
87 3 3.11042 9.32934 9.71221 4.72654 3.35343 13.7354
88 3 3.53856 12.1557 15.2149 4.97685 -11.5928 -3.41457
89 3 1.41195 0.332272 10.0338 -2.93726 1.00527 -0.240265
90 3 11.2119 6.45915 11.4095 -7.48009 -11.09 -5.97668
91 3 5.21867 8.48401 11.2288 -5.17596 4.01364 3.84692
92 3 8.67724 12.7891 9.50327 8.68004 1.05907 7.19548
93 3 5.44146 11.6417 10.9751 -1.05584 8.93746 -2.03452
94 3 12.7623 12.8167 11.9292 2.17231 -11.2132 2.5014
95 3 2.02353 2.29691 11.7124 -0.476628 -4.63637 7.99123
96 3 3.77504 6.56156 9.62265 5.30664 5.5183 12.1045
97 3 7.81303 12.9495 12.2673 -0.57153 5.05062 -6.88255
98 3 12.1539 12.0929 9.48191 -5.0625 -5.49462 -2.23103
ITEM: TIMESTEP
980000
ITEM: NUMBER OF ATOMS
98
ITEM: BOX BOUNDS pp pp pp
-8.8911966683022925e-03 1.3096573196668459e+01
-7.6514174794493073e-03 1.3153235417479360e+01
9.2127394064100372e+00 1.5381309593589961e+01
ITEM: ATOMS id type x y z vx vy vz
1 1 9.6218 13.0701 10.4782 5.23512 -2.0583 6.0961
2 1 3.13584 3.12472 14.1781 6.27281 -7.35145 -5.83403
3 1 8.59144 10.2041 11.6868 -4.92109 -0.306737 -5.46375
4 1 3.21318 8.52545 15.4382 -9.49333 -3.08236 -1.45539
5 1 11.9152 6.01089 13.5387 13.0545 -16.0526 -0.740301
6 1 12.7685 9.94601 11.015 13.6512 0.694465 -5.19397
7 1 10.267 8.38273 9.64339 9.63794 -4.75925 16.1515
8 1 1.29054 4.44812 12.4848 -23.6206 -4.42609 5.25467
9 1 7.601 6.27254 9.24744 -6.63822 -7.57787 -8.95746
10 1 0.684396 10.779 13.1809 7.1811 6.99895 2.31996
11 1 11.435 9.79249 14.316 -14.4312 0.754417 7.41756
12 1 3.72782 4.67973 11.0709 -5.53637 -12.3822 6.7677
13 1 11.8813 12.6402 12.5105 -3.5159 -1.68998 -9.09941
14 1 3.4595 10.8596 10.612 -8.37269 13.1242 18.6391
15 1 4.75463 6.3231 14.0019 -2.81795 -8.29227 18.7656
16 1 9.12451 13.0676 14.0692 -5.6985 -7.10563 13.5161
17 1 5.96771 4.0785 12.3684 10.4911 -9.16557 6.09016
18 1 6.23754 8.90505 10.2377 -2.14219 5.84623 -9.36148
19 1 11.8669 2.79158 11.1012 14.5316 -0.429738 -12.3067
20 1 0.00891808 6.91098 10.5644 -14.3303 6.8567 -3.51668
21 1 9.20043 3.20845 9.28675 10.2673 12.8679 -5.50554
22 1 5.71257 9.63006 13.483 -4.02833 -4.6373 15.6318
23 1 8.94038 3.51984 12.2933 13.438 1.19111 -9.90281
24 1 7.07921 0.976923 9.42687 8.41028 -0.161946 -1.09685
25 1 6.29574 11.7789 12.5526 2.1315 4.77995 10.9924
26 1 4.55465 0.801515 10.6943 20.1481 20.4787 4.91651
27 1 0.599143 3.50978 9.08742 -24.7781 -4.59459 -9.4164
28 1 1.42463 12.8063 11.2199 3.29799 8.77847 -14.0495
29 2 1.26991 0.342494 14.0928 -1.99047 9.37234 9.9672
30 2 11.3724 3.00766 13.6925 -0.851084 -1.29738 -2.0368
31 2 10.6748 5.44469 10.6684 -12.0475 -1.30825 -5.54387
32 2 6.0561 3.64091 9.20623 9.27903 -17.9544 -10.4756
33 2 8.21615 10.446 15.0162 -7.77771 6.26341 14.6751
34 2 2.23048 5.78582 9.38778 -9.27989 -13.2711 -9.42806
35 2 3.4726 7.79592 11.9559 -12.9618 14.9927 10.1571
36 2 1.14946 7.76965 13.4191 -2.05803 -1.37879 9.31244
37 2 3.62246 11.8281 14.7076 6.13367 9.07363 10.0352
38 2 2.44818 2.41884 11.1947 14.9338 -4.17661 0.692899
39 2 12.046 12.3966 9.38518 5.35638 -0.372736 -3.1112
40 2 9.9782 7.785 12.4081 -2.96898 -6.82614 -1.41844
41 2 7.43769 6.59391 12.3538 7.98101 4.00897 -21.4008
42 2 7.38507 0.819748 12.3465 -2.72496 -5.71053 -8.9661
43 3 3.87885 5.82519 9.27993 -11.7621 15.9817 -8.14394
44 3 9.92175 6.2776 9.64829 -5.44863 5.30026 -7.63886
45 3 2.76007 8.06317 13.2658 2.99848 -3.95219 4.77971
46 3 7.8152 4.95468 12.3467 -8.66014 0.000248862 8.66418
47 3 1.94099 4.45621 14.6756 7.30537 3.1059 6.32451
48 3 8.68291 7.21776 12.7782 3.91498 -8.53706 -6.04169
49 3 3.0397 2.84103 9.87894 3.43058 -4.01236 3.60553
50 3 6.67493 10.1176 11.8292 -0.76369 12.4032 -5.49384
51 3 4.27289 9.31473 11.7698 -2.03269 -1.64835 -6.31812
52 3 3.07377 3.48161 12.2826 -4.51307 4.93391 2.95369
53 3 8.78624 0.317812 11.8813 -2.25664 7.91144 -7.15721
54 3 4.60616 11.7437 13.4266 5.19871 -1.5442 -6.02468
55 3 6.75378 10.6923 14.9196 14.2851 -9.85756 2.83043
56 3 6.5378 6.71451 13.6139 -8.2135 -8.89497 1.32378
57 3 8.85719 11.4058 10.0129 -0.903344 12.8186 5.15126
58 3 7.36669 0.0669817 13.835 -2.86208 -14.0986 -0.489453
59 3 2.84425 10.4924 15.0677 -0.775352 1.77732 -5.12322
60 3 1.41826 1.82857 14.3654 -3.1965 -8.39528 -2.42943
61 3 12.6141 4.23171 13.1125 8.80594 -0.123223 -1.12327
62 3 4.32304 12.3217 9.77208 -4.96895 10.4236 -2.26184
63 3 9.95174 3.63086 13.7035 6.75807 0.173909 2.86991
64 3 11.8377 2.44568 15.0021 11.0245 8.80415 11.2506
65 3 0.768836 2.84503 11.0688 -10.6797 -7.67748 -3.10755
66 3 1.61078 5.35152 10.6777 -10.2453 0.12237 0.839103
67 3 1.36565 6.80207 14.7883 -4.23761 -8.31693 -6.45393
68 3 5.77418 1.99212 15.1559 2.28553 -2.02989 -10.7321
69 3 12.07 8.35114 10.0243 0.908889 -1.1113 11.4738
70 3 0.539599 12.9458 12.8063 -1.18668 3.66191 -1.3971
71 3 0.452549 8.97216 13.9184 5.85278 12.0346 -5.56763
72 3 12.1319 5.17173 10.0916 -8.20993 -3.72747 -4.5659
73 3 5.53941 3.9823 10.7274 6.78286 -1.06173 -2.58097
74 3 10.0341 3.95395 10.7717 4.34211 -0.854305 7.36891
75 3 11.3056 1.94447 12.5728 7.83891 6.8292 -10.0014
76 3 5.12988 4.21268 14.2339 2.63492 5.47583 -0.902709
77 3 10.7554 6.11548 12.0742 0.52514 4.12043 4.51438
78 3 12.1335 10.9343 9.52252 -1.1076 -10.924 -6.75492
79 3 12.1586 10.7029 12.5195 4.41195 -0.241429 4.98074
80 3 8.99015 10.8713 13.5044 -4.75144 -1.99419 3.87282
81 3 7.60112 2.34126 12.0924 7.37281 5.65555 -3.28046
82 3 9.78725 8.89501 11.3942 -0.422319 6.03022 -2.17202
83 3 6.97233 6.98467 10.9025 0.51824 -2.96932 0.0112813
84 3 7.52896 4.33918 15.3076 2.0449 2.74989 -3.46975
85 3 8.56476 8.91385 15.3987 -5.70012 -9.19104 11.7029
86 3 0.311836 6.84186 12.4961 -4.71598 0.75342 -0.711929
87 3 2.64031 7.79038 10.7547 -3.72355 -9.36207 -3.9215
88 3 2.62624 12.892 14.2269 -7.15688 2.47862 14.9715
89 3 0.447672 12.8672 9.28311 2.02664 -8.31684 0.663598
90 3 10.8916 8.09514 13.5221 -6.09979 -0.414451 -3.43245
91 3 4.17304 6.40984 12.1015 5.21023 -13.469 -6.56061
92 3 8.93152 1.16683 9.32007 -1.3553 6.2219 2.47905
93 3 1.70009 10.9059 11.1654 6.08403 2.56583 -4.02065
94 3 11.6703 12.9218 10.8571 4.76328 -6.86564 6.3145
95 3 3.04467 0.937657 11.7054 -3.21739 -2.93056 -6.24248
96 3 4.98654 8.73818 15.1317 0.550504 1.83267 -2.16446
97 3 6.31938 0.247157 11.4564 1.42985 6.4503 7.54429
98 3 11.0517 12.9307 14.5203 1.40687 10.2524 12.1717
ITEM: TIMESTEP
1000000
ITEM: NUMBER OF ATOMS
98
ITEM: BOX BOUNDS pp pp pp
-8.8911966683022925e-03 1.3096573196668459e+01
-7.6514174794493073e-03 1.3153235417479360e+01
9.2127394064100372e+00 1.5381309593589961e+01
ITEM: ATOMS id type x y z vx vy vz
1 1 10.0788 13.356 14.9166 -2.70551 20.0619 -4.83254
2 1 3.33504 2.66714 14.7087 -7.43689 -4.98012 20.3602
3 1 8.67324 9.79555 11.432 -14.0868 8.29634 9.63664
4 1 3.27835 8.11458 14.6301 -5.11968 -11.7868 12.9743
5 1 11.8577 5.91039 13.7494 19.312 2.13084 -8.28396
6 1 2.66014 10.9199 10.3052 9.46231 -0.107171 16.9326
7 1 10.1775 7.59614 10.2863 -5.25084 -9.02979 -12.4167
8 1 0.648358 3.29543 13.1882 1.06372 8.74065 11.5539
9 1 11.4766 9.35838 12.7721 -2.54927 6.78268 0.827348
10 1 3.17279 11.8838 13.5447 -9.78273 1.13316 1.10838
11 1 11.7922 9.96216 9.30153 7.67124 -1.50713 2.99618
12 1 4.19337 5.70039 9.9366 3.20206 -5.94852 -2.17921
13 1 10.0797 12.2767 11.6145 -7.85861 -13.752 5.99284
14 1 1.44787 0.318124 11.9461 -9.54135 -12.0335 -0.714993
15 1 3.85637 5.63942 13.0272 -5.51537 8.56382 -2.63581
16 1 8.52197 2.55846 9.81086 4.35605 14.108 3.40571
17 1 5.8115 3.05373 11.6782 -8.75978 10.8145 -3.10115
18 1 6.59874 8.79732 9.97014 -14.2452 -12.8731 1.85747
19 1 10.7592 1.36449 11.5633 5.00647 -1.33197 -19.0609
20 1 0.145078 7.4908 10.6725 1.98073 -3.03486 22.6809
21 1 6.81501 6.15533 14.4433 -3.80081 7.75745 0.499057
22 1 5.60348 9.04155 12.7329 22.9787 11.401 -9.81375
23 1 8.45397 2.91411 12.6824 -14.3925 7.11857 -14.7646
24 1 7.70517 12.2967 9.81996 9.15371 5.39763 12.0006
25 1 6.66916 11.0784 12.9446 12.8133 -2.66076 -15.4455
26 1 5.18041 0.519422 15.0519 -5.21613 -1.82374 1.51583
27 1 -0.229883 3.48684 9.99124 2.74283 3.62979 1.70268
28 1 12.158 11.806 13.019 -3.8079 10.3594 -8.93247
29 2 1.50432 0.914155 14.6646 9.36162 -0.278478 14.7594
30 2 11.1971 2.45512 14.2857 5.60023 -0.618255 -6.51551
31 2 10.629 4.60188 10.6782 -12.5587 -11.2447 9.95247
32 2 6.08072 3.45976 14.9095 -17.9979 -4.83389 -6.71375
33 2 9.24965 10.1137 14.7305 0.356281 6.18418 10.2233
34 2 1.40364 6.27103 14.5697 13.0111 4.61056 -10.9819
35 2 3.11572 8.2026 11.6623 -3.08941 -3.22818 19.0215
36 2 0.511073 8.63209 13.303 -2.05522 11.3934 -4.44923
37 2 5.03863 10.9124 14.8903 -11.3636 3.31004 -3.56647
38 2 3.05933 3.02048 11.7118 -10.405 -8.052 -9.94364
39 2 13.1085 12.2634 9.93096 -2.19799 -1.29226 -9.67205
40 2 9.0501 6.64037 12.689 -5.93721 -6.6079 0.688292
41 2 6.4241 6.14926 11.5259 -7.54956 -8.35086 2.04028
42 2 8.00726 0.261953 12.9334 -0.0917021 -4.385 9.44141
43 3 2.90301 6.32723 14.4748 0.697935 9.35024 1.17545
44 3 10.4255 5.93482 9.88827 12.025 -1.72674 0.736317
45 3 1.34857 8.39172 11.9795 -2.54104 -8.47521 8.20377
46 3 5.31766 5.06439 11.7 -1.41707 -9.34712 -4.58639
47 3 0.807108 5.52125 13.3621 -0.558322 0.418412 0.970165
48 3 7.85491 5.95517 11.7158 -2.55124 2.48676 -6.04969
49 3 3.34741 3.43569 10.2634 3.79912 -6.19919 4.20728
50 3 6.81513 9.85491 11.4505 -3.90359 2.8884 4.14316
51 3 3.73028 8.70212 13.0579 -1.47994 5.81757 -8.88604
52 3 2.97901 4.01982 13.0525 -5.05026 -7.32524 2.98609
53 3 9.61968 13.2872 13.1479 -8.13976 12.1888 4.21322
54 3 5.17173 12.0263 13.5871 -7.68114 2.94203 1.17286
55 3 8.57099 9.19131 9.65632 -0.890769 -6.25936 3.05415
56 3 5.98243 7.14794 12.6502 -4.88173 7.63779 -8.14349
57 3 8.1667 10.6227 13.8061 -9.32285 2.02946 -6.87129
58 3 7.37774 0.0753393 14.3519 9.67573 4.33406 1.2917
59 3 3.44715 10.7222 14.9687 6.6105 -10.047 -6.40469
60 3 1.14792 2.45459 14.7858 5.53674 13.8724 2.57165
61 3 11.7312 3.97475 14.3203 -9.32225 -6.02895 -0.981171
62 3 5.5918 11.9665 9.95617 -1.83937 -0.986446 8.87596
63 3 9.55906 2.69642 14.245 0.924602 6.2671 -0.765677
64 3 11.8063 1.78723 9.57989 2.32317 4.79046 5.39984
65 3 1.33292 2.37307 11.6764 5.59481 0.939629 -8.46438
66 3 0.626408 6.02624 9.80928 -7.02294 2.86885 -4.43203
67 3 1.3112 7.97779 14.4019 9.58765 -3.42119 0.879286
68 3 6.82795 3.30976 10.0468 7.03454 -2.55704 -5.7975
69 3 11.8545 8.62191 10.5721 -0.743806 -4.55959 2.27398
70 3 1.22861 12.9971 13.6534 -0.853783 5.07435 -0.710588
71 3 13.1577 10.0619 13.4178 5.50221 3.25621 1.19794
72 3 11.993 4.39995 11.1204 7.26339 15.3659 4.55224
73 3 5.31475 4.78682 14.9986 3.30371 -1.62656 7.85259
74 3 9.515 3.71441 11.0147 4.37493 -10.1141 -9.58591
75 3 11.8852 1.74765 13.1382 4.43734 3.60084 -3.51448
76 3 5.30772 2.31324 14.8514 -2.20458 4.62715 -0.862525
77 3 10.2096 5.6987 12.3764 -11.5769 -2.99143 -1.26504
78 3 0.378113 10.6302 10.3657 -0.489854 1.60122 -4.76115
79 3 10.8154 10.8885 12.1191 -7.91613 -5.02772 8.94972
80 3 10.5162 9.36921 14.3427 10.4696 -6.74046 3.83933
81 3 7.53515 1.43281 12.2208 14.4541 -8.43715 8.38796
82 3 9.24748 7.96306 11.9173 10.7459 -1.23563 -8.12395
83 3 6.01194 6.90935 10.0282 -3.74583 -7.28443 1.98367
84 3 6.86788 3.68501 13.4905 -9.13252 -4.95662 -9.54452
85 3 9.63349 11.3157 9.59301 -5.28452 -4.55275 -0.305334
86 3 12.249 7.6586 13.2608 12.4181 -3.37592 -3.59871
87 3 3.64479 8.94419 10.4166 4.62864 -3.67715 -4.0183
88 3 3.05357 0.674196 14.6949 0.576961 -1.01769 -9.83623
89 3 1.11935 13.3927 9.92371 -2.92758 8.78282 5.18053
90 3 8.37857 6.67079 13.9286 6.57668 2.52027 -2.76974
91 3 3.21551 6.7752 11.3596 5.29926 -0.335684 3.94561
92 3 9.34984 0.701817 10.2553 -13.1246 -4.36769 1.40691
93 3 2.96136 11.8154 11.8407 -5.67224 4.52127 -4.88717
94 3 12.1863 12.8774 11.3278 -2.74441 6.58623 0.576026
95 3 3.95271 1.95903 12.0465 9.43585 -6.38251 4.02218
96 3 5.5723 9.53786 14.507 -4.37812 0.199359 1.93648
97 3 7.85735 12.3019 11.8739 2.17416 -5.71121 5.24996
98 3 11.9375 12.0424 15.0332 0.65987 4.30091 -1.56413
ITEM: TIMESTEP
1020000
ITEM: NUMBER OF ATOMS
98
ITEM: BOX BOUNDS pp pp pp
-8.8911966683022925e-03 1.3096573196668459e+01
-7.6514174794493073e-03 1.3153235417479360e+01
9.2127394064100372e+00 1.5381309593589961e+01
ITEM: ATOMS id type x y z vx vy vz
1 1 9.8199 11.2656 10.2073 14.0334 9.40856 24.2512
2 1 5.20538 3.33695 12.4498 -17.5905 -5.99247 4.60543
3 1 3.70478 -0.363004 11.2314 3.5203 6.9467 0.614115
4 1 4.22115 8.21088 14.2154 2.85987 -6.40765 6.46972
5 1 11.897 5.45077 14.9094 -16.1645 17.6321 -0.116718
6 1 1.8737 10.4302 9.70391 16.0816 -7.44127 9.36004
7 1 9.56415 7.92629 10.0507 2.4061 9.74571 5.26993
8 1 0.0850412 3.54651 9.86538 8.52413 6.9957 17.3335
9 1 8.82066 1.12028 14.7244 -13.0574 3.89195 8.52897
10 1 4.10562 10.646 12.2728 9.09419 -9.54819 -6.2668
11 1 11.7838 9.05929 11.4598 2.82591 6.95566 14.1979
12 1 4.06066 5.28488 9.96119 -8.81265 5.98584 14.0071
13 1 11.98 8.29033 14.7287 2.15664 -3.39904 8.13013
14 1 1.18074 12.9315 10.7962 -3.02539 -1.00523 8.21643
15 1 3.46731 5.55474 12.5105 -4.2774 -4.63926 2.44183
16 1 8.61706 5.11946 9.24648 10.9341 -4.76337 5.7627
17 1 8.52972 3.00946 13.4548 -21.3191 -1.27826 -18.8804
18 1 6.48734 11.8123 10.1031 5.74583 -5.81633 -1.78911
19 1 11.3137 1.48192 11.374 -6.23986 -14.5466 4.93732
20 1 0.342787 6.80553 11.4303 6.48679 -9.00858 13.642
21 1 5.96079 8.83824 10.3179 -4.23371 12.7347 -10.7246
22 1 8.08549 8.76232 12.1517 -12.584 -10.6402 -5.89743
23 1 7.88777 2.85317 10.9938 -17.9243 -3.86424 -3.16873
24 1 6.81891 11.274 13.0785 5.64273 10.4867 8.58708
25 1 6.86768 6.68369 14.4434 -19.2836 -1.2194 9.27818
26 1 3.05338 1.77946 15.3878 0.14744 -3.38956 -0.22854
27 1 0.424908 3.65667 12.8903 11.2137 -13.9229 -6.13251
28 1 10.9389 11.0653 13.1186 -1.02138 6.58965 12.1428
29 2 0.928349 0.942734 13.8189 -13.8886 -12.1622 4.21625
30 2 11.6463 2.30039 14.3978 12.2873 -0.466759 7.63615
31 2 10.6219 4.46642 11.181 -18.6803 -6.73946 -5.75703
32 2 5.76993 3.43767 15.1571 8.95172 -5.93356 21.7605
33 2 8.3502 9.75172 15.1036 3.48241 -5.53556 -19.1328
34 2 1.44292 6.40202 14.2168 -12.4166 1.85623 -3.76563
35 2 2.90988 8.10014 11.128 -5.03896 -2.96677 -1.85645
36 2 0.859413 9.24275 13.3049 -9.36516 4.70407 -4.35624
37 2 4.77212 13.1886 14.4362 10.4389 -13.8789 -5.58214
38 2 2.50031 2.91046 11.3306 4.90959 -17.3087 9.5998
39 2 12.5252 11.8648 9.31167 -10.1103 17.8152 14.3333
40 2 9.79809 6.6042 13.0449 -8.194 5.66583 -13.7862
41 2 6.77937 5.47431 11.5434 2.73643 -4.18952 -3.53574
42 2 8.54612 0.292861 11.7199 2.62021 7.15256 -9.21394
43 3 2.98703 6.55092 14.0817 -0.897383 3.01431 13.6455
44 3 10.415 5.31319 9.91489 9.96055 4.63032 -4.60148
45 3 1.19891 8.62555 11.3767 -9.14019 -2.79701 -0.557121
46 3 7.36744 5.81137 10.1172 -6.33548 -0.699671 -4.15172
47 3 0.799645 5.77609 12.9597 -4.59941 6.72978 0.82515
48 3 9.28332 7.42048 11.8255 7.82354 -8.52249 10.4051
49 3 2.97258 3.76302 10.1517 -1.5584 0.576058 6.63247
50 3 6.14473 10.2153 11.2734 4.80941 3.50259 -1.99845
51 3 3.82463 8.38827 12.3096 -0.42444 -2.02929 5.23525
52 3 2.98614 3.60654 12.6959 2.22765 -6.99232 -7.97233
53 3 9.67376 13.0021 12.5768 7.36667 4.23057 -6.29673
54 3 4.57149 0.154257 12.8377 -8.29079 0.082981 -2.13482
55 3 7.91447 8.88931 10.118 0.645616 -1.09781 -7.37118
56 3 6.48539 6.90491 12.6114 3.90619 2.91767 5.26703
57 3 7.64783 9.65395 13.8545 3.2831 -9.09 -4.22302
58 3 7.46807 12.4049 11.6594 4.83735 -5.29082 1.9307
59 3 5.09363 11.0566 13.8201 -2.84643 5.14443 -0.378506
60 3 1.35594 2.2256 14.4181 -0.649432 7.704 2.01702
61 3 12.1034 3.76223 14.7098 -3.65714 1.27984 2.57603
62 3 6.14095 13.2699 15.0763 2.82319 2.20232 -3.91245
63 3 10.0571 2.37025 14.1235 3.65994 -6.75846 -5.60621
64 3 11.8207 1.73538 9.55677 -0.7645 -3.24443 -5.61943
65 3 1.00636 3.01433 11.1629 -3.10812 6.53736 1.0065
66 3 0.873293 5.60311 9.25909 10.5482 2.74869 -3.48219
67 3 0.92715 7.88722 14.2741 -1.96205 2.25557 -4.67104
68 3 7.44163 3.38905 14.7267 -4.79687 -3.54509 -9.53135
69 3 11.89 7.52057 10.4306 -1.91207 1.26018 -2.87712
70 3 1.10004 0.404977 12.4439 16.0143 2.48997 -1.63282
71 3 1.81543 10.2424 13.7907 6.66401 -7.5237 1.28418
72 3 12.1596 4.47572 11.3718 6.43756 -0.948802 -0.570882
73 3 7.37235 4.27715 12.3701 5.12196 2.00139 5.53471
74 3 9.6471 3.4212 10.9557 4.37987 -3.00207 2.15588
75 3 12.0723 1.74942 13.1075 -0.191316 2.18142 12.3672
76 3 5.31878 4.98028 14.941 0.298119 11.3111 -3.67312
77 3 10.0813 5.04881 12.9821 3.15502 -6.18877 -0.485204
78 3 13.053 10.2508 9.55385 -4.86594 6.94357 -3.21498
79 3 10.2327 9.89473 11.755 9.87981 -9.31589 -2.38785
80 3 9.99119 9.60977 14.9811 -13.4973 2.11436 -4.59166
81 3 5.92646 2.84671 10.3869 -5.18448 10.4968 -5.84848
82 3 11.5324 6.98914 13.6168 -4.70873 1.69915 -1.67332
83 3 5.25866 5.1591 11.6058 -3.04216 4.64504 0.970076
84 3 4.77135 2.55501 14.3953 5.3431 -3.38826 -0.907144
85 3 8.27777 11.2692 9.23852 0.935882 -3.63627 8.83662
86 3 12.4728 9.53812 13.1212 -9.33789 2.88379 -3.79903
87 3 3.50741 9.13207 10.0467 0.148674 -5.56365 2.38596
88 3 3.52325 13.1882 15.0818 -3.60953 8.01752 -1.12058
89 3 0.509505 12.8295 14.9199 6.74686 2.67656 -3.62311
90 3 9.18129 6.81414 14.352 9.10281 0.799799 -5.32876
91 3 2.88094 6.45883 11.0112 -2.99714 1.36281 -6.40359
92 3 8.75168 0.616335 10.3415 -5.1865 -2.70419 3.8083
93 3 2.47957 11.4666 11.1018 7.55591 -3.53777 -1.66449
94 3 12.1256 12.1936 10.7128 6.56263 -7.5051 -11.5828
95 3 3.0359 1.46112 11.0594 -4.79452 -2.78669 -0.119969
96 3 5.69373 7.681 15.2239 7.46738 2.91694 5.3719
97 3 8.09645 1.60838 12.3657 -6.7398 6.51994 -0.768103
98 3 11.2673 11.9854 14.5709 -11.2763 0.939645 1.49184
ITEM: TIMESTEP
1040000
ITEM: NUMBER OF ATOMS
98
ITEM: BOX BOUNDS pp pp pp
-8.8911966683022925e-03 1.3096573196668459e+01
-7.6514174794493073e-03 1.3153235417479360e+01
9.2127394064100372e+00 1.5381309593589961e+01
ITEM: ATOMS id type x y z vx vy vz
1 1 9.82454 11.2818 13.5269 3.47174 -26.1835 9.48802
2 1 5.33443 3.86216 11.4724 -18.1024 0.698098 -7.89239
3 1 7.23277 12.0421 15.2331 -6.15828 9.69591 12.3227
4 1 3.14514 8.61147 9.45786 6.02537 -21.0228 10.5463
5 1 6.53666 1.49012 13.3282 -10.2641 -4.6806 -9.51717
6 1 0.610343 10.2708 10.4763 5.742 8.72604 -1.52126
7 1 8.69212 3.74906 15.3369 7.35869 2.68975 2.78626
8 1 12.8316 2.53653 12.3052 3.56334 0.180833 -13.4949
9 1 8.1609 9.55136 11.7372 2.14474 -5.98235 8.96875
10 1 11.349 8.46887 11.6478 -13.8872 -4.28961 11.3472
11 1 9.17639 7.06078 10.7503 7.06126 5.5106 -1.41059
12 1 0.677584 0.821399 9.9508 -11.8955 6.61562 6.91894
13 1 2.84093 5.795 11.4307 7.69667 -11.6162 -1.18406
14 1 2.77335 3.40006 13.2864 -8.92327 -0.302642 -16.6021
15 1 3.7323 1.37397 11.518 8.7328 5.9597 -6.57846
16 1 6.36096 1.62025 9.62748 -2.56359 25.1253 -7.79093
17 1 8.38915 3.64954 12.2967 1.54143 -2.86537 2.48901
18 1 5.74064 9.53409 10.1637 3.69359 -7.29993 -6.11828
19 1 9.21623 0.943053 14.0515 -10.5323 -11.1189 -0.0989664
20 1 12.6746 7.5769 15.261 -0.0568728 20.5517 4.87941
21 1 5.69403 9.46732 13.7762 -10.6077 25.1434 3.90141
22 1 11.7748 0.355734 11.0325 14.6519 2.75862 1.44549
23 1 6.1744 12.0052 12.4175 11.8484 -1.01602 3.1439
24 1 6.60759 7.06711 15.2989 -4.79341 -13.3931 -4.01765
25 1 4.264 7.19931 13.64 -3.30528 0.750408 14.2566
26 1 3.69812 11.9487 11.4311 0.747373 18.0462 12.6512
27 1 12.1069 4.891 13.9173 -8.24099 9.34815 20.0123
28 1 11.0275 10.7241 10.4364 7.05157 -15.9831 7.92128
29 2 1.41058 0.492992 12.6588 -4.47841 2.40826 -1.76155
30 2 11.4634 2.74396 14.9347 -1.52334 1.06249 -3.68673
31 2 11.0885 4.81742 10.9548 -1.51255 12.3855 3.25081
32 2 5.74075 4.11145 14.4674 4.28018 -2.94368 -29.9794
33 2 8.69377 9.24723 14.9687 -5.75367 -3.47087 10.1077
34 2 1.88589 5.51138 14.6045 0.481096 1.00712 -2.43697
35 2 2.9639 9.18721 11.8392 -1.86318 5.34453 -13.7739
36 2 0.653448 9.88482 13.5444 -2.13281 -8.05335 5.67038
37 2 4.82407 12.3608 14.9673 4.68741 -2.05141 -3.64676
38 2 2.11763 3.29221 10.2792 -3.45286 7.87219 -1.12913
39 2 12.5153 12.4832 14.1629 11.7914 -7.79874 -22.0985
40 2 9.54955 6.46366 13.9825 3.69089 1.09362 -14.5431
41 2 6.5302 6.1882 12.0857 5.55988 -3.92794 -5.77219
42 2 8.57028 0.384552 10.9853 6.67631 -1.34429 5.29128
43 3 2.66997 6.7631 15.1123 4.07274 -1.91854 3.96108
44 3 9.3694 4.65796 10.7528 -3.34102 4.76353 8.30898
45 3 1.46996 9.82137 12.1432 6.45998 1.57214 -4.60894
46 3 4.86789 5.89195 11.9668 6.17378 -1.70106 -11.8113
47 3 2.22258 5.25462 13.1168 4.57671 4.34564 -6.34579
48 3 8.99336 6.97581 12.6173 0.705844 3.39289 3.51734
49 3 2.46022 4.27981 15.2909 3.39404 3.36254 0.412003
50 3 6.0327 10.0803 12.0551 0.889324 7.49903 5.80243
51 3 3.71925 9.13291 13.249 -14.6633 -2.61364 -2.95433
52 3 3.5969 3.39786 11.1734 0.827888 4.80091 5.65462
53 3 7.43554 12.6299 11.0014 -9.56782 2.80931 5.19194
54 3 5.51931 1.06381 11.7871 1.69006 -3.32055 -0.931272
55 3 8.76337 7.51324 14.9218 3.2491 5.86567 6.13813
56 3 6.48604 7.44716 13.1315 7.91642 -7.27854 -1.58111
57 3 7.7182 9.77279 13.8149 -3.33415 -4.45727 -3.00399
58 3 8.3257 1.6611 12.3544 2.86917 -12.438 -1.4272
59 3 5.55349 11.151 15.4065 -2.59117 7.5884 10.7595
60 3 2.43808 1.65887 12.8278 -1.88839 -9.07929 2.1022
61 3 12.8017 2.669 14.0362 2.12612 -0.284627 -10.1005
62 3 6.03138 0.426014 14.6129 8.61417 2.45862 -3.26217
63 3 10.3026 2.45333 14.0661 -4.3848 -0.309851 1.46967
64 3 11.7823 1.62436 9.88035 -5.14474 5.16641 2.82606
65 3 0.982673 3.3799 11.1481 3.95779 5.51839 -3.17695
66 3 0.345284 5.85613 14.8718 -9.53897 -2.80457 7.40747
67 3 12.8592 8.70193 13.3662 -4.35277 -8.7361 7.31176
68 3 7.13804 3.20074 14.2129 -5.8905 5.75458 9.05241
69 3 12.282 9.34765 10.2603 -5.30679 -7.9403 1.52566
70 3 1.9221 12.5662 11.7919 -0.263526 -6.64954 6.14478
71 3 1.43769 9.6948 14.9115 -7.93557 -3.59074 -4.57182
72 3 11.6296 6.57139 10.9 -2.68632 1.05101 -0.0198421
73 3 7.10093 6.79266 10.6636 -4.83721 -5.45408 4.40048
74 3 11.5311 4.30362 9.51026 9.12642 7.55924 -3.80524
75 3 0.0502715 0.730037 11.8838 -5.9308 -0.21584 -0.652407
76 3 5.64203 5.57769 14.6741 -7.21506 -5.33394 -12.0523
77 3 11.7079 4.10066 12.098 2.97715 -10.1395 -0.223131
78 3 12.5435 12.1204 9.67571 -1.03308 5.77838 9.25003
79 3 8.02895 9.29592 10.1307 0.270064 -4.25807 1.50632
80 3 9.89506 10.0229 15.0032 -4.35455 0.244185 0.581419
81 3 5.83701 3.44511 9.68468 1.57652 7.88035 4.73568
82 3 10.9886 6.51698 14.2542 -3.04638 -5.16158 3.98585
83 3 6.79139 4.64001 11.9924 9.07745 2.85958 -1.56294
84 3 4.7007 3.46259 13.5649 -2.13054 8.70203 -5.73965
85 3 8.34972 12.3928 13.9014 2.12383 -2.8723 -3.0014
86 3 12.937 11.1239 13.4752 1.06311 1.82983 -1.40908
87 3 3.65331 10.0616 10.7587 6.39028 -2.45862 5.75494
88 3 4.36331 11.9802 13.6323 -10.8358 0.152085 1.82231
89 3 0.922671 0.138926 14.1001 -7.81655 0.661019 -4.96069
90 3 9.13491 4.90768 13.9604 1.40786 -7.39438 5.13867
91 3 2.88228 7.78254 11.2228 -3.99261 -7.4623 -12.2406
92 3 8.29399 1.4184 9.82449 7.25915 7.78366 11.4716
93 3 3.86831 12.8309 9.81848 8.7648 -2.87185 6.33341
94 3 10.0453 9.96373 11.7394 12.6006 14.6015 1.44968
95 3 2.08695 1.81755 9.68037 -0.261513 -4.14144 -9.70152
96 3 5.14879 8.20739 9.17246 3.90541 -1.73563 -7.70961
97 3 10.0388 12.9384 11.2891 10.4379 -1.21686 -6.63694
98 3 11.0569 12.7796 13.6719 -3.38708 3.22451 -5.95233
ITEM: TIMESTEP
1060000
ITEM: NUMBER OF ATOMS
98
ITEM: BOX BOUNDS pp pp pp
-8.8911966683022925e-03 1.3096573196668459e+01
-7.6514174794493073e-03 1.3153235417479360e+01
9.2127394064100372e+00 1.5381309593589961e+01
ITEM: ATOMS id type x y z vx vy vz
1 1 10.9108 0.460106 15.6241 2.97097 2.88142 9.19706
2 1 5.96269 0.920636 9.17336 8.00739 -11.6746 -12.9288
3 1 8.80055 10.5819 12.6411 -19.0445 2.05161 -14.5688
4 1 5.54139 6.93089 14.855 9.03009 15.9281 -8.70148
5 1 1.52412 11.2865 10.1222 -4.85313 -5.34268 13.2752
6 1 2.74263 8.68753 14.6372 -14.3421 -27.5104 2.84561
7 1 7.31864 8.54783 11.354 6.61737 -5.80279 -2.45198
8 1 1.04033 3.3689 13.2331 8.94047 -4.33712 6.98045
9 1 8.28242 12.7115 14.126 -6.42 -7.87151 -5.65273
10 1 12.7119 7.04329 9.90783 -6.54176 -17.3774 1.18943
11 1 8.63471 4.86623 13.6135 -11.5798 -7.65414 7.02173
12 1 0.535526 2.56207 10.0188 -11.6612 5.73687 8.27213
13 1 2.39188 1.08355 14.7819 0.307462 7.54666 16.8963
14 1 5.08522 8.6327 13.0903 -3.52721 17.5727 -5.09661
15 1 5.76059 11.6156 12.3635 -18.7679 -6.18837 0.872411
16 1 5.45974 2.37687 12.1086 5.05127 -4.8057 -5.20357
17 1 7.60792 3.13188 10.9689 -28.0179 14.6824 -0.133179
18 1 5.37008 9.56195 9.86626 -3.69572 3.06457 9.8315
19 1 10.5829 1.64762 12.5108 -20.3768 2.21399 5.18194
20 1 10.9958 8.37095 11.7423 -9.62136 8.22319 -5.41274
21 1 8.31744 5.72654 9.77496 1.97427 1.33725 -9.35526
22 1 11.2383 10.6469 10.2076 1.09847 9.82811 -5.38833
23 1 11.0778 12.1682 12.4728 9.4199 -11.0116 -5.46657
24 1 3.98487 4.82601 12.8556 -5.22404 -12.312 1.66643
25 1 1.15332 5.55972 11.792 13.9957 -0.274468 -9.6563
26 1 3.86307 12.6207 11.4816 -2.39611 16.8914 -18.0588
27 1 12.0979 6.25911 13.493 7.1206 -20.0847 4.10732
28 1 11.6079 9.16487 14.128 1.4849 -14.9548 19.3625
29 2 0.57068 0.764247 12.1048 15.4918 5.81722 -10.43
30 2 11.4034 3.77497 14.4866 -2.72057 0.442359 0.60407
31 2 11.0824 5.29007 10.885 -1.17883 -4.34953 1.50026
32 2 6.36847 3.69689 14.9144 7.6642 10.8278 -2.08508
33 2 8.5599 9.98722 9.47104 -0.0797109 8.56221 -1.47752
34 2 2.22293 6.00178 14.6071 6.34788 0.564479 -16.451
35 2 2.56771 8.40076 11.2725 -2.51271 7.53351 -8.69651
36 2 0.375915 9.68579 12.436 -5.32438 -7.67146 15.4808
37 2 4.27964 12.09 14.6216 -3.39974 11.7917 -5.82497
38 2 2.62718 3.52405 10.4878 0.795329 2.33008 6.60324
39 2 13.0339 11.9743 14.4317 12.3593 5.01516 13.0499
40 2 9.05361 7.85952 13.7712 7.7982 3.53098 -10.6194
41 2 6.03437 6.0136 11.6936 8.24436 -2.2671 -10.4443
42 2 8.52192 0.303808 11.2981 -10.2697 9.69394 13.6757
43 3 3.28507 6.97755 13.9864 -3.14001 8.02532 7.30095
44 3 9.98461 6.09961 11.308 -2.17713 7.41916 -1.28648
45 3 1.93653 9.08687 12.5649 4.60904 -1.18638 1.37607
46 3 4.67071 5.50466 11.0872 -4.91476 8.6661 1.86504
47 3 2.08818 4.90231 13.3521 -8.02878 7.78979 -1.56986
48 3 8.67346 8.67014 12.6184 -9.66587 1.7598 -6.05243
49 3 2.37992 4.77486 9.5371 7.08046 8.89579 -8.74457
50 3 6.37594 9.85545 12.5638 5.10381 -5.51297 0.216607
51 3 3.93253 8.80094 11.3899 -12.0979 2.23809 6.47099
52 3 3.71443 3.29884 11.5359 1.54538 -4.47089 -5.25858
53 3 7.77931 12.4965 12.1298 4.54552 -3.17288 10.9485
54 3 5.47169 0.1119 11.6954 -7.04769 -4.4497 4.95744
55 3 9.26524 8.72821 15.0891 3.22616 -4.2809 -1.92678
56 3 5.82054 6.8925 12.8728 -2.87743 8.84051 1.49043
57 3 8.65958 10.9922 14.5258 -11.2239 -2.16155 10.6988
58 3 8.62114 1.83599 11.9124 7.43306 -5.59649 3.57177
59 3 3.79188 11.8338 13.0828 4.83136 -10.7476 4.15398
60 3 1.1064 1.47823 13.2749 9.49782 -10.483 3.15818
61 3 12.4374 4.37939 13.348 1.43956 7.04035 0.250115
62 3 3.92462 0.41407 15.0167 -3.6312 1.18342 1.41014
63 3 10.0613 3.66608 13.8091 8.01753 0.313286 10.6433
64 3 11.8922 2.3349 14.9324 -4.54327 4.4231 -4.69586
65 3 1.42037 3.36395 11.5528 7.66567 7.57748 -0.972767
66 3 0.742692 6.5526 14.3906 -4.00879 2.38119 7.58088
67 3 -0.126992 10.5562 11.2472 -5.71164 6.56154 1.23425
68 3 7.80992 4.2258 15.2109 -7.01738 -1.63818 2.51625
69 3 11.8282 8.64067 9.69104 6.94571 -4.28346 1.66305
70 3 1.84675 13.1157 11.2758 -0.416688 -0.675801 -5.2068
71 3 12.5027 8.46997 12.608 14.6941 -3.3432 2.53543
72 3 12.3647 5.91224 11.442 -4.88343 3.19514 -6.79434
73 3 6.96043 7.05445 10.4241 -6.98788 -4.02666 4.22036
74 3 11.4996 5.21619 15.5133 11.757 0.572013 -3.45109
75 3 12.8689 1.4497 11.195 -8.33343 -13.0961 -7.50169
76 3 5.24707 4.66128 14.6685 4.90711 5.38873 1.10496
77 3 10.8504 3.71471 10.9328 6.90342 -4.69968 -8.29563
78 3 12.0203 12.1767 9.18503 0.220742 4.81083 -2.07552
79 3 7.06344 9.84176 9.95427 -12.4204 -1.98989 5.08029
80 3 9.49285 10.3316 10.716 -0.348488 -14.4566 -5.92004
81 3 6.31509 2.5542 10.0356 -1.95551 3.74829 1.15491
82 3 10.6392 7.37291 13.6089 6.48277 -2.19542 0.39049
83 3 7.03836 4.82917 11.989 9.82483 8.60085 -1.87605
84 3 6.22515 2.43537 13.8386 0.663825 -3.94011 -7.54423
85 3 9.97398 0.550881 13.9872 4.65787 -10.3524 -3.17714
86 3 0.299798 10.6743 13.7864 -1.94458 1.22988 0.864474
87 3 1.56327 8.87771 10.046 -6.56628 2.59639 -4.37214
88 3 3.86407 11.2484 9.72167 -3.99575 -1.53502 -9.73119
89 3 1.31093 12.3645 14.9635 3.15391 6.52168 10.6799
90 3 8.24093 6.69188 14.053 -1.74189 -3.55674 2.50514
91 3 2.02428 6.97871 11.3478 1.45676 -6.35035 7.23669
92 3 7.97552 0.267054 9.88295 5.82735 -2.30563 4.49311
93 3 5.95767 12.07 14.4483 4.12445 2.75118 -4.91728
94 3 10.6474 10.6125 13.0315 2.19861 -6.29023 -5.85402
95 3 2.47119 2.40476 9.47756 4.29634 9.91445 -2.10136
96 3 4.89406 8.67599 14.7523 1.39552 -1.49519 -9.46561
97 3 10.4143 0.0550716 11.1716 -8.37785 -9.48875 4.27912
98 3 12.6774 12.9988 13.0634 6.69576 8.74632 0.412145
ITEM: TIMESTEP
1080000
ITEM: NUMBER OF ATOMS
98
ITEM: BOX BOUNDS pp pp pp
-8.8911966683022925e-03 1.3096573196668459e+01
-7.6514174794493073e-03 1.3153235417479360e+01
9.2127394064100372e+00 1.5381309593589961e+01
ITEM: ATOMS id type x y z vx vy vz
1 1 12.2231 1.3596 10.8132 4.27405 -2.96359 5.72397
2 1 5.97795 0.920531 10.0759 -4.62654 -0.0438895 -0.22451
3 1 11.8307 11.4676 9.19425 18.2655 7.34977 -24.6486
4 1 4.58004 12.5291 11.6773 -1.89484 15.369 -11.0838
5 1 4.59573 9.40445 13.4188 -9.49631 0.613343 0.172961
6 1 3.23005 10.3592 10.1732 1.07053 -13.4203 12.1134
7 1 5.77957 8.37045 9.70857 8.84462 -3.55139 -21.5325
8 1 10.3808 3.17587 11.1794 -4.16896 6.93533 -1.16772
9 1 11.6561 10.8844 11.7602 24.8874 -5.04104 10.2217
10 1 0.443956 5.15938 14.5437 -20.5287 -9.21374 11.7667
11 1 9.38247 9.9565 10.9132 -6.51058 -8.4536 1.08275
12 1 7.44275 0.987352 12.5715 -5.81725 -13.1299 -9.18359
13 1 1.27962 1.96339 13.9121 5.45233 -9.13621 -12.5507
14 1 1.14543 10.3714 13.7275 0.779459 17.5333 -6.35431
15 1 2.80728 1.2438 10.2717 6.6877 -7.33828 -4.17785
16 1 8.60883 6.98926 11.5063 -14.4849 8.14578 9.99694
17 1 11.2316 4.06485 13.8229 20.9535 -29.6502 -8.69646
18 1 7.39674 11.6217 12.1116 -0.0161532 7.29405 12.5876
19 1 7.11224 3.00582 10.9038 -14.9713 8.39417 -13.8044
20 1 0.608 6.46289 12.0802 -0.790542 5.88023 5.85941
21 1 8.81696 4.75615 14.7162 14.9466 -8.76728 3.87451
22 1 0.213548 8.59065 10.5815 1.01639 18.0655 -11.6606
23 1 11.7845 0.466137 13.094 -3.39089 -5.47412 -6.38589
24 1 5.70325 5.75116 14.0495 5.79118 -18.9668 3.1095
25 1 4.01717 2.36093 12.3343 0.143731 0.0917401 12.9421
26 1 3.05328 7.23149 15.15 -4.04066 -16.847 11.8217
27 1 3.37757 5.30254 11.2444 1.74674 0.937594 10.409
28 1 9.05242 12.2835 14.0948 5.26172 -2.47864 0.375607
29 2 1.19691 12.5955 11.6932 6.26807 -1.90133 9.3915
30 2 9.54048 2.04841 14.4018 -2.23992 1.28073 -4.85289
31 2 11.366 5.7968 10.592 -16.8337 2.92741 -10.6162
32 2 6.3002 3.29454 13.9966 6.76493 -0.459031 16.5229
33 2 7.77974 9.73443 15.0076 -12.8678 6.74975 1.36048
34 2 3.42025 3.88529 14.9862 -3.11442 2.16911 -2.2786
35 2 2.87382 8.44406 11.842 -2.08324 6.78231 -7.35685
36 2 12.5466 8.2544 13.9389 4.08549 6.5901 -7.68794
37 2 4.57297 12.2607 14.4955 -10.095 -7.64154 29.4936
38 2 0.937704 3.58469 12.0328 -4.75045 -4.57877 -9.27088
39 2 1.6476 12.6414 14.3489 1.14247 -5.91909 -4.65165
40 2 9.60958 7.97634 13.6373 0.86562 5.02995 1.99737
41 2 6.21159 6.24923 10.8922 6.34574 -9.51412 -11.2832
42 2 9.4218 0.340486 11.1665 -3.68794 1.04661 5.64738
43 3 2.56412 2.60225 14.8506 -10.5214 6.55328 9.81263
44 3 9.9871 6.50109 10.4561 0.135764 10.3775 11.19
45 3 2.24346 9.72651 12.4041 4.97759 -4.03917 -14.5162
46 3 5.15959 6.05523 12.0472 -6.41116 -6.40288 8.659
47 3 2.54889 5.36154 14.8786 -7.45882 2.79785 2.98266
48 3 9.05104 8.58117 12.3218 11.4654 1.33295 -6.35425
49 3 1.38208 4.92986 11.7757 -1.85166 -3.59521 4.20501
50 3 6.41513 12.8334 11.374 0.470079 -2.50122 0.556765
51 3 4.2489 8.81234 11.5632 -1.61681 8.91006 -2.86504
52 3 -0.11944 2.87511 10.8418 -8.96771 6.59308 -8.95288
53 3 8.97613 12.2937 12.0163 4.14427 7.74116 -0.649836
54 3 4.34822 1.42464 10.8306 -0.541701 5.87926 6.03577
55 3 8.9466 8.72382 15.025 4.42643 6.64456 9.48004
56 3 7.00437 7.51712 11.2201 -0.949036 -0.906231 2.25622
57 3 6.52262 9.09537 14.5785 16.7525 1.18896 -2.9534
58 3 10.6676 1.35718 11.7562 4.19008 4.72488 -1.10442
59 3 4.65123 11.3085 13.0731 -4.10926 6.61034 1.75387
60 3 0.313484 0.79416 12.1946 0.64643 -1.70759 -2.15073
61 3 9.37785 3.35035 13.2751 3.9633 7.46875 3.52207
62 3 5.81088 -0.0231669 14.5314 5.97368 1.83064 -3.68152
63 3 8.79466 0.87107 13.7215 8.70025 5.88924 9.2208
64 3 9.14307 3.09392 9.39392 0.683037 3.29215 -4.31529
65 3 2.23171 2.74348 12.166 -9.11882 -9.44911 -7.54864
66 3 3.80297 3.78958 10.373 0.326408 -8.43817 5.63215
67 3 12.8849 8.9535 12.5726 -9.65534 -4.74504 3.51783
68 3 7.05774 4.57136 14.0661 -5.94881 -5.76352 6.45715
69 3 10.8581 10.3042 10.2296 -3.23654 3.54785 6.11671
70 3 2.50838 12.7561 11.1101 -3.98192 -6.45128 -9.17555
71 3 0.034543 6.8137 13.6992 -2.78413 -6.60454 3.62601
72 3 12.5526 6.97216 10.7944 4.90698 0.132416 -2.15558
73 3 5.36464 6.63299 9.55875 -3.68555 2.99025 -10.2119
74 3 11.751 5.02757 9.15705 1.11132 3.41971 0.421862
75 3 13.0413 11.8662 10.9962 -6.91723 -5.83146 6.44584
76 3 4.48526 3.91794 13.7663 -3.75841 -0.687188 1.09741
77 3 11.1443 4.77456 11.7291 0.591039 -3.43016 -7.02837
78 3 0.900027 0.643595 15.0909 -0.248658 -5.705 -2.98924
79 3 8.00676 10.3768 10.2443 3.18694 -5.27343 7.09908
80 3 7.9288 10.9179 14.0216 -7.16331 1.76396 -0.630139
81 3 6.16053 2.54539 15.2294 -8.27503 4.26382 12.3859
82 3 11.0359 8.27492 13.9919 0.366168 3.67795 -10.3619
83 3 7.16604 5.07558 10.6832 -3.44461 7.70849 -9.69878
84 3 6.34657 2.3372 12.7606 10.1979 -2.31766 0.054552
85 3 11.1819 1.91044 14.5772 1.95217 -5.72623 -7.38343
86 3 0.197406 9.13522 15.0091 3.75813 12.4981 -2.49535
87 3 2.07122 7.83524 10.4805 -1.988 -10.3013 -0.353066
88 3 3.27223 13.2426 14.1631 14.8767 1.51957 -2.46263
89 3 1.87204 11.2928 15.2265 -2.95628 4.08308 0.605809
90 3 9.01064 6.4773 13.6292 -2.17227 -6.94808 1.60627
91 3 2.42945 7.45993 12.9444 0.393755 -0.378174 -11.5412
92 3 8.37509 1.36278 10.9952 0.103709 8.87679 6.6439
93 3 4.47531 11.4782 9.7136 -2.54475 -5.59582 -5.60301
94 3 11.2665 11.7302 13.5794 1.46328 -8.24924 -2.14588
95 3 0.116024 3.58081 13.508 9.2664 1.98873 -6.85897
96 3 4.17182 8.72599 15.0119 2.63764 -0.671852 15.4657
97 3 9.89541 12.9545 9.83847 -4.34042 -3.07427 2.18341
98 3 1.19452 12.0545 13.0824 6.57105 0.414236 1.20215
ITEM: TIMESTEP
1100000
ITEM: NUMBER OF ATOMS
98
ITEM: BOX BOUNDS pp pp pp
-8.8911966683022925e-03 1.3096573196668459e+01
-7.6514174794493073e-03 1.3153235417479360e+01
9.2127394064100372e+00 1.5381309593589961e+01
ITEM: ATOMS id type x y z vx vy vz
1 1 12.1887 5.46531 13.1799 14.3358 0.385209 5.26654
2 1 6.5063 0.904507 10.4019 7.65522 0.715068 -16.1681
3 1 11.8937 10.3698 14.5668 11.209 -15.6486 5.13088
4 1 12.1179 0.364018 11.6505 -9.61551 4.74011 -12.4218
5 1 6.97445 11.3949 11.111 -3.41052 0.781938 5.54618
6 1 3.75512 10.4785 10.3837 8.67814 4.24412 2.77643
7 1 2.51037 0.594615 12.4125 -30.7475 15.5522 -1.19398
8 1 7.38922 0.648533 13.6227 -6.00091 7.29792 -10.8176
9 1 7.80327 6.5036 14.7633 -12.742 -19.5661 1.19289
10 1 2.13298 6.40146 13.4854 -4.13538 17.9429 -8.95299
11 1 12.8147 8.41057 12.5188 11.7308 -7.8234 9.21818
12 1 4.77144 12.5818 12.6585 -14.8971 17.6991 6.25426
13 1 1.68945 3.79801 14.9665 -2.1237 -0.463312 -16.6948
14 1 2.03707 10.9215 14.3306 -25.7985 16.6657 5.33374
15 1 4.18197 2.39141 11.0221 0.677049 7.10149 -1.20986
16 1 10.836 6.31077 10.3968 -9.33584 3.00708 -18.0116
17 1 9.3556 3.7764 9.55509 -4.24625 -10.3288 15.1801
18 1 8.20837 9.74927 13.3582 -3.21361 12.7116 0.349661
19 1 6.82081 3.84217 12.0472 -8.65619 16.4876 -5.87452
20 1 1.38853 6.32822 10.2473 -0.079012 -13.7831 14.1439
21 1 11.6731 2.47425 14.238 13.2002 -3.092 -8.05793
22 1 10.6702 10.5843 11.1238 -0.712541 -7.03011 3.84519
23 1 8.95439 9.03236 9.66089 2.86362 0.120865 -14.0501
24 1 5.5162 8.55126 13.4849 -1.41072 -7.94272 -0.911782
25 1 4.49591 2.3848 13.7419 4.62969 10.7123 -8.79181
26 1 5.67768 8.14631 10.2022 10.1694 -18.7648 -7.35224
27 1 4.87169 5.51547 11.7188 9.50147 3.51043 -0.912256
28 1 9.22338 12.2572 15.215 -10.3668 1.91778 -12.9714
29 2 1.03436 10.8836 11.4732 -2.39324 -0.788249 9.52131
30 2 9.37731 3.01133 12.7486 2.68996 -10.426 -13.2051
31 2 12.3115 3.57419 10.483 -6.44401 16.234 -14.917
32 2 6.30893 3.68011 15.0256 -2.95944 -8.05289 -0.519334
33 2 6.33395 11.0346 14.773 4.42477 2.14116 -6.59041
34 2 4.20303 5.61569 14.7839 10.7274 -5.17654 -1.09156
35 2 2.93862 8.92595 12.6026 0.354466 24.0417 -9.48448
36 2 0.0551675 7.73638 14.9568 9.76903 1.02601 1.76539
37 2 3.37661 13.0821 9.33712 -17.1432 8.19496 -0.167604
38 2 1.58043 3.43083 11.9492 16.6094 -3.03297 4.75159
39 2 0.308027 -0.0317455 14.6334 -6.39189 -7.10309 -5.91456
40 2 9.93934 7.33305 13.6756 -9.8095 -3.76062 7.6384
41 2 7.5887 6.82684 11.3346 3.0692 18.249 4.04103
42 2 9.84679 0.208152 12.2512 -12.9557 -13.6223 -9.04685
43 3 2.724 5.33471 15.0434 3.49509 1.90688 10.3677
44 3 12.2384 5.22251 11.0573 2.19034 5.83382 15.0586
45 3 1.92398 10.3524 12.6774 8.31248 -10.263 2.93913
46 3 7.04974 5.48611 11.3108 11.4025 -7.5242 4.1632
47 3 4.89749 6.36216 9.82399 -10.6426 2.74958 -7.58558
48 3 11.3402 7.39704 12.9437 -8.45874 -1.12087 14.6789
49 3 1.61207 4.87229 12.2223 2.17604 -5.8637 9.85892
50 3 6.30248 12.9653 11.7463 0.20292 3.22395 0.178842
51 3 3.99215 8.98058 11.518 -6.05662 -1.8357 -4.17142
52 3 2.47737 2.94817 10.921 4.57085 6.9872 -1.5706
53 3 10.9479 12.2466 12.2438 -1.21036 -1.49504 5.15318
54 3 4.19729 1.20947 12.5551 -0.516099 4.77288 1.02928
55 3 8.65452 6.64959 12.9013 -2.66825 3.87733 3.50205
56 3 6.40449 7.74599 11.7047 11.8955 -2.14949 0.857224
57 3 5.42271 10.6222 9.80488 -2.53084 1.82347 7.57182
58 3 8.99481 12.9772 10.9322 5.94296 5.94757 4.19193
59 3 3.73918 12.0489 14.3739 -3.60485 -4.75547 -3.65809
60 3 12.6754 0.0923927 9.8721 -0.994945 -4.61348 -7.13098
61 3 8.70028 3.57071 11.587 -3.99615 -4.04533 0.595415
62 3 4.21966 1.11522 9.4939 1.38402 -20.0029 -8.27026
63 3 10.3829 1.63364 12.2222 -5.01769 5.56088 1.49126
64 3 9.21725 2.55259 14.2357 -4.77978 8.16206 -3.84339
65 3 4.93221 3.95033 11.8025 -0.349204 2.01492 -0.881842
66 3 4.76546 3.85501 14.9717 6.00648 -2.65177 2.03709
67 3 12.9192 8.96932 14.1287 -3.45156 -8.9864 -5.28065
68 3 6.96717 4.9247 14.5716 0.9533 -2.09716 -1.49747
69 3 8.38876 10.3505 11.513 6.94235 -11.3902 0.774709
70 3 1.19597 12.4877 11.7909 -7.23694 6.4231 -0.588335
71 3 11.9858 8.0355 9.84072 8.20012 4.67421 -7.95137
72 3 -0.0408624 3.60515 15.2444 -15.202 -5.50719 9.70168
73 3 6.95616 8.14848 14.6913 -6.25115 3.55643 -3.69153
74 3 10.933 3.18532 10.2361 2.81766 4.50721 4.61538
75 3 1.83754 10.5418 10.2284 -4.63465 -0.710472 1.99287
76 3 4.02009 6.0719 13.3889 10.8309 -3.47598 -3.83547
77 3 0.269869 2.83519 11.5517 0.0104389 1.09525 8.28019
78 3 12.9002 1.12537 13.7307 -3.39322 -2.31281 -2.97386
79 3 7.86408 10.9267 14.8549 -0.69706 -4.37331 -0.391011
80 3 6.02655 10.2699 13.4075 0.451293 1.98599 -6.7996
81 3 6.64705 2.90819 10.0979 -5.92752 -0.221749 7.72604
82 3 9.40418 8.66154 14.1629 5.73575 -1.25109 -7.75158
83 3 8.60874 7.32335 10.4146 5.14282 -5.61144 -6.39735
84 3 6.65693 2.59793 13.5964 -3.36816 -10.5294 5.43589
85 3 10.9448 3.89414 13.1532 -3.64125 -2.08271 -5.61961
86 3 0.348115 6.39628 14.2182 5.93141 2.25957 4.18678
87 3 1.96378 7.6793 12.2649 6.27428 -6.52095 0.155214
88 3 1.87993 0.44421 15.1846 4.37935 9.96835 0.539251
89 3 0.199002 11.624 14.3319 -1.00897 12.5383 -0.492116
90 3 10.229 6.1397 14.8127 8.08864 6.28404 -7.02249
91 3 3.80397 9.01269 13.9491 5.19581 1.17616 4.61437
92 3 9.00537 13.1361 13.5173 12.6489 1.53684 4.07324
93 3 3.82712 12.2923 10.7496 -3.56274 -1.6511 4.11594
94 3 10.5989 11.0445 9.45262 -1.14416 5.59088 4.96415
95 3 2.06757 2.67878 13.3006 0.683612 -7.143 -0.138118
96 3 1.55512 7.73174 9.48084 -7.86214 -0.184848 -5.93796
97 3 6.42264 12.5653 14.9784 -1.29434 -2.52171 -3.49497
98 3 12.5912 10.1871 11.7211 1.9002 6.36025 3.51435
