POSCAR file written by Ovito 3.10.6
1
13.097817 0.0 0.0
0.0 12.998649 0.0
0.0 0.0 15.3382809
Li Be F Mo Nb Ta W 
28 14 56 20 20 20 20 
Cartesian
3.156447 12.423649 12.7493809
4.396697 0.890349 14.7761809
10.494317 12.804349 10.8268809
4.766867 6.083939 10.5494809
0.50333 10.604249 11.9189809
7.678677 9.553239 10.4966809
5.181657 11.559349 10.4940809
3.398787 9.557829 13.6855809
0.14625408 1.192479 9.7269209
6.168747 3.560969 9.3046309
11.077617 3.228839 12.3715809
2.436967 5.767189 12.3975809
6.688967 10.660449 13.1879809
0.514158 9.553929 9.1756909
9.898777 11.262949 13.1069809
12.465417 7.382619 10.7924809
2.148117 6.138639 15.3279809
11.198017 4.168979 9.6464909
9.802467 6.014019 13.3995809
5.796797 8.325669 9.3107109
4.142497 2.544769 11.1757809
0.256032 4.187279 14.1331809
8.633197 2.005109 10.5912809
9.631887 7.464069 10.4158809
7.420737 6.791379 11.7899809
6.344037 4.514279 12.1499809
12.833117 11.753849 14.5899809
11.696017 9.078499 13.8954809
5.773657 0.574527 12.2494809
11.369417 0.844315 14.0465809
7.618437 12.032749 9.4135409
2.530937 12.108249 9.5617209
12.509917 6.719349 14.1689809
9.103657 8.486789 13.2182809
2.954207 8.475269 10.6512809
2.905777 3.278109 13.9224809
4.957097 7.189289 13.6602809
0.0 4.997889 11.1123809
8.835327 4.704319 10.7957809
1.026438 1.049349 12.7864809
7.860127 2.023429 13.7579809
10.892817 10.208549 10.2926809
9.014517 5.612259 9.7601709
5.208307 4.287729 10.8337809
10.994317 11.206949 11.4743809
5.268297 8.729289 13.6495809
13.097817 0.395889 13.8729809
10.063677 3.278819 10.6707809
11.284217 10.972149 15.1768809
5.814237 11.980149 12.3987809
5.479067 6.563049 14.8602809
3.217237 6.692099 10.4876809
1.711527 2.091499 13.5696809
0.759354 6.245779 10.7860809
7.015897 0.932186 13.0823809
3.478417 11.789349 10.7352809
7.249717 7.710959 10.3425809
0.490582 4.315239 12.3999809
2.215167 4.255389 14.9724809
4.380937 0.659336 12.9322809
12.973217 3.809259 9.8532009
9.024317 7.635559 14.4143809
6.858247 3.483919 13.7629809
2.442247 9.217669 12.0052809
0.857848 6.539519 14.3458809
1.536187 12.656549 12.5522809
11.357617 2.421729 14.1329809
2.651327 0.545323 9.2967409
7.565287 4.046739 10.5894809
2.051917 8.705279 9.4321409
4.177887 2.894089 14.7982809
11.761117 7.707969 15.1643809
8.354487 1.832219 15.1016809
7.742097 9.159849 12.7311809
5.707827 1.446009 10.9410809
8.611957 5.083989 12.4186809
12.242317 9.342439 10.7355809
11.449017 0.492701 9.4728309
0.447213 1.542639 11.4176809
12.182317 7.467149 12.8073809
7.115187 11.073649 10.6509809
9.555297 7.301089 12.1003809
5.530037 6.553719 12.2696809
3.001787 11.284049 14.3237809
10.081907 9.513039 13.2657809
3.215887 3.875949 12.6325809
6.192017 12.832549 15.3382809
0.15428196 9.968169 13.7598809
10.676417 12.998649 13.2224809
11.767317 5.355079 14.4699809
4.340667 9.196459 10.3034809
11.730217 5.770519 11.2328809
3.464047 6.642149 13.5358809
9.485907 9.395599 10.3043809
8.946387 2.095149 12.6456809
1.14481 11.647049 9.7805909
8.018157 11.605649 14.2023809
9.004217 12.528149 10.1398809
0.894693 12.348649 6.9702809
4.616067 12.043549 0.6971679
2.442697 4.020289 0.7095189
5.907577 7.053459 0.9196379
9.301477 7.055119 0.1529509
7.649407 2.134059 0.6692359
12.596817 3.630309 1.5302909
1.498287 11.798949 1.7654709
6.300107 10.245249 1.6364509
3.364297 0.0 2.9347009
6.227087 3.210139 3.0176209
6.360347 6.300159 3.8772209
2.248477 11.290249 4.6389809
4.856507 4.544109 5.3144409
0.393767 12.732349 4.0508209
5.102267 11.357349 3.6735309
11.829417 11.276049 2.4433509
10.412717 12.325749 4.6840709
3.575927 2.846149 6.7465609
10.687317 8.536729 6.9852409
5.645397 0.836776 7.5044409
2.468507 7.493959 1.2758309
9.643207 9.980629 0.9629309
4.385617 5.317699 2.2937409
7.742267 5.155629 1.6458709
10.878017 5.167359 0.7867879
12.224317 7.818239 1.5777309
3.086627 3.466469 3.7958509
9.529907 3.220179 2.1834609
1.618157 9.040129 3.3340709
8.397317 11.302649 2.9524209
1.821117 1.281899 5.2609409
5.051747 1.357229 4.4541209
12.170417 4.298269 4.0797009
5.292937 7.663629 5.9032309
6.988957 2.656619 5.9245109
0.456485 6.002399 8.1916209
3.677977 5.993749 7.3561809
10.182417 5.806549 5.9970909
2.791867 10.636449 7.6371709
8.885687 0.669719 6.7468509
0.67117 2.479199 7.5524509
13.039817 10.165949 0.2816619
4.395457 9.035979 0.0
2.647487 0.778421 0.0753239
10.885717 2.027489 0.030151
8.085717 8.104629 2.3883609
11.077917 11.860949 7.6465309
6.442337 0.234286 2.1681809
9.625167 0.0685645 1.5521009
1.191607 2.042729 2.4542609
12.554017 7.003039 4.7820909
11.484417 1.521419 3.1009209
1.529877 4.920569 5.8990209
1.870877 8.055389 6.4897309
10.397017 9.176239 3.9924309
7.014897 12.621249 5.0964009
7.041897 5.866759 6.8182109
12.564117 10.584249 5.5488909
7.453757 8.838939 7.6558209
5.770977 3.819049 0.0264592
8.876057 3.910459 7.5550909
1.186617 5.395749 2.7017509
5.789137 10.925349 6.7432709
4.483767 2.120279 1.5635009
3.931047 9.553639 5.1536709
4.588457 8.316249 2.8212309
7.654607 12.030549 0.0210315
13.038817 0.299593 0.8913829
3.222937 6.471139 4.3309709
9.838227 6.136099 3.3056409
6.792047 9.526579 4.6382409
8.380297 1.298049 3.7487909
8.163257 4.486539 4.5748309
8.427927 7.533529 5.2765609
8.860957 10.572249 6.0907509
12.092317 0.685269 5.9746209
3.954147 12.729449 5.9648309
12.056917 4.069959 6.8240309
10.199917 2.785369 5.4865709
