178

Li		11.4223		4.81408		13.1576
Li		5.61342		10.1775		11.9546
Li		0.892656		10.0452		15.0221
Li		12.6415		0.346652		11.0272
Li		10.2927		12.6922		9.31952
Li		4.43503		0.161707		10.1927
Li		1.71009		1.31841		12.2668
Li		8.15535		10.6848		9.97999
Li		7.15509		5.23795		14.8977
Li		1.56647		6.67043		14.122
Li		11.553		7.37733		12.2584
Li		7.41924		12.8386		10.8133
Li		1.54972		4.21819		15.2495
Li		3.26549		12.7224		13.5396
Li		4.24085		3.86783		10.9367
Li		9.95243		6.3162		10.4843
Li		9.50047		2.94765		11.5795
Li		10.6624		10.0042		13.6515
Li		6.67571		1.88362		12.395
Li		2.31242		7.32015		10.668
Li		12.2204		2.02459		14.4483
Li		12.6131		10.5108		11.8889
Li		10.1776		9.36864		10.2032
Li		8.06628		9.9069		13.6118
Li		4.20159		2.91355		13.8302
Li		5.96858		7.96401		13.7545
Li		6.58141		5.19431		11.8466
Li		4.03215		8.77527		9.31968
Be		2.5533		11.2034		11.1193
Be		9.5001		1.83746		13.9575
Be		11.5676		3.83456		10.4948
Be		7.41557		2.5557		9.53827
Be		6.29805		12.1752		14.0417
Be		4.3147		5.60902		15.2108
Be		3.41153		8.64635		12.4548
Be		12.4617		7.66626		15.2048
Be		1.81173		1.30485		15.3785
Be		1.20896		4.57036		12.1239
Be		13.2248		12.6191		14.0846
Be		9.05121		6.65366		13.6934
Be		7.23557		8.11827		10.4686
Be		9.88528		12.3369		12.3639
F		3.07071		6.53323		15.4949
F		10.3348		4.54493		10.9019
F		3.07598		10.289		12.4373
F		7.64267		6.55928		10.3946
F		5.06211		5.30542		10.3907
F		9.88066		6.66065		12.2565
F		1.51237		5.75072		11.0312
F		6.84238		11.0861		11.1145
F		4.02481		8.42231		11.0315
F		2.1096		3.40463		11.8195
F		11.4808		11.9483		12.1171
F		3.60471		1.2215		13.2772
F		7.70344		5.85787		13.2488
F		6.25059		8.33096		11.7436
F		6.58061		-0.104165		12.8482
F		9.33523		13.0739		11.1041
F		0.993308		2.33552		14.6384
F		1.52893		12.9749		14.887
F		8.50019		1.96425		12.9732
F		0.878383		1.28853		10.5518
F		10.1311		0.449074		13.664
F		8.86284		1.95576		15.4394
F		5.19942		3.20836		12.3583
F		3.53808		4.13802		15.0185
F		12.3869		6.71354		14.0712
F		8.05413		3.63712		10.5189
F		11.4284		9.23613		12.1531
F		3.06999		12.5746		11.2135
F		11.8538		8.96591		14.7606
F		12.0381		3.84533		15.2842
F		6.62015		8.61908		9.1608
F		11.2639		2.30411		10.9668
F		3.03846		10.4894		9.69699
F		5.23854		6.02139		14.0419
F		12.6866		4.39369		11.6722
F		13.1426		0.534589		12.9312
F		5.07474		12.8172		14.6216
F		6.17018		10.6478		13.7988
F		6.57255		1.38875		10.4513
F		8.92505		8.3296		14.0918
F		8.67692		8.83792		10.6865
F		6.65657		3.253		14.5604
F		10.639		2.93552		13.5838
F		11.8139		7.02749		10.3434
F		1.96419		8.17424		12.7407
F		0.381919		11.1763		13.5842
F		12.0263		12.8879		15.0867
F		9.93662		5.88219		14.6499
F		4.36006		8.56191		13.7282
F		9.06526		11.0644		12.7802
F		3.26243		1.61757		9.62027
F		9.88554		10.9304		9.33392
F		1.18044		4.88414		13.6874
F		1.00687		8.10185		9.41612
F		7.2821		12.1961		15.1969
F		0.854221		11.105		10.8896
Mo		0.599853	12.2798		6.89927
Mo		4.35645		11.8215		0.842566
Nb		5.57064		0.577083	7.55613
Ta		8.61123		0.542781	6.87347
Ta		0.516893	2.1752		7.7218
Mo		2.14683		4.25247		0.731656
W		5.53125		3.68639		0.0661005
W		9.01277		3.65242		7.53822
W		0.492732	9.00716		3.67761
Nb		1.87392		7.41941		1.37471
Mo		5.72412		6.81157		0.678843
Mo		9.47256		6.64613		0.29459
Ta		12.7164		10.0693		0.244468
Ta		4.06027		8.73756		0.00348617
W		5.58642		10.4821		6.76576
Nb		9.61026		9.74465		0.880277
Ta		2.50935		0.360547	0.0474044
W		4.19757		1.9965		1.45872
Mo		7.45977		1.85406		0.772858
Ta		10.6783		1.74381		0.0833235
Mo		0.709148	5.18925		2.68951
Nb		4.11267		5.24099		2.07061
Nb		7.55514		4.87454		1.43882
Nb		11.2988		4.74278		1.20245
W		3.7074		9.1189		5.16374
W		4.93183		8.03484		3.03149
Ta		7.87525		7.98628		2.42198
Nb		11.8207		7.78628		1.74577
Mo		1.27053		11.6555		1.74693
Mo		6.25725		9.92089		1.56139
W		7.48368		11.5799		0.131449
Ta		10.7176		11.7411		7.6644
W		12.4886		-0.0285986	1.0052
Mo		2.98692		0.0922965	3.11366
Ta		6.1811		0.00211117	2.35885
Ta		9.36152		-0.25769	1.83224
Ta		0.974548	1.85513		2.31873
Nb		2.8646		3.27712		3.56866
Mo		6.16385		3.07192		2.90822
Nb		9.36671		3.10608		2.5361
Ta		12.6812		6.4761		4.66337
W		2.59094		6.42859		4.20999
Mo		6.40666		6.18685		3.81171
W		9.9543		6.12552		3.22974
Nb		3.17826		9.99676		2.38079
Mo		1.93826		11.0401		4.82601
W		6.66796		9.22788		4.74532
Nb		8.24871		11.066		3.1135
Nb		1.68586		1.37161		5.36847
Nb		4.94171		1.38678		4.41247
W		8.09356		1.09755		3.96528
Ta		11.1703		1.11091		3.22125
Ta		1.50667		4.4397		5.69656
Mo		4.8257		4.52638		5.07908
W		8.0963		4.34276		4.52667
Nb		12.4784		3.32445		4.12881
Ta		1.37343		8.05213		6.35511
Nb		5.33359		7.20597		6.02174
W		8.50502		7.2291		5.31929
Ta		10.1024		9.14846		3.97689
Mo		0.0399902	12.6818		4.01375
Mo		5.00232		11.3167		3.78315
W		8.80996		10.4851		6.2667
Mo		11.6197		11.1192		2.58413
W		11.8457		0.612075	6.00084
W		3.8466		12.4287		5.96799
Ta		6.8137		12.4242		5.41616
Mo		9.96477		12.4075		4.63021
W		12.0571		3.9337		6.77298
Mo		3.74704		2.47559		6.72172
Nb		6.87288		2.68013		6.05009
W		10.087		2.37146		5.40367
Nb		-0.0994109      6.08616		7.72244
Nb		3.32359		5.97333		7.3848
Ta		7.16101		5.49068		6.81378
Nb		10.3545		5.74549		6.2474
Ta		11.9749		10.5148		5.52216
Nb		2.3251		10.4059		7.70875
Ta		7.54151		8.6746		7.63778
Mo		10.8402		8.49316		7.12029